28758
1 4 15 139 143 144
2 3 19 143 1689
3 2 143 2205
4 4 141 143 1689 2179
5 4 19 142 143 2202
6 2 143 2205
7 5 139 143 2179 2200 2201
8 2 143 2205
9 2 139 144
10 2 2179 2203
11 2 143 2205
12 2 139 2203
13 2 2179 2203
14 2 139 144
15 4 1 139 143 2180
16 3 122 140 499
17 3 122 140 2010
18 2 2179 2201
19 6 2 5 142 143 1689 2202
20 3 143 2180 2205
21 1 2205
22 1 139
23 7 302 305 306 310 391 591 613
24 4 63 64 252 1997
25 4 223 252 263 1997
26 3 263 1997 5749
27 4 102 1589 1625 1649
28 2 104 147
29 4 105 107 128 148
30 4 105 147 148 4206
31 2 1642 5744
32 3 1607 1642 1996
33 3 123 216 252
34 4 95 125 249 1647
35 2 63 252
36 4 95 100 125 4206
37 1 104
38 3 106 129 241
39 3 106 186 252
40 7 66 98 100 104 127 249 4206
41 2 106 252
42 1 104
43 2 106 129
44 5 106 108 252 1650 1998
45 4 66 104 146 4209
46 4 67 104 105 147
47 10 51 107 109 129 130 148 1614 1650 1680 4206
48 4 111 131 132 1650
49 4 110 210 2312 2321
50 1 111
51 8 47 109 111 131 154 1650 4206 4207
52 3 55 111 149
53 3 70 111 149
54 3 69 111 135
55 6 52 71 111 113 149 255
56 2 2119 2314
57 1 2316
58 3 113 134 2317
59 3 75 2119 2292
60 4 120 121 261 267
61 6 120 136 261 1977 2007 5789
62 6 261 267 338 1977 2620 5789
63 5 24 35 124 252 1997
64 2 24 252
65 3 103 263 2115
66 6 40 45 104 146 4206 4209
67 6 46 104 105 107 128 129
68 3 108 263 2312
69 3 54 111 135
70 4 53 111 135 149
71 4 55 113 135 149
72 2 134 2317
73 4 113 133 255 263
74 6 113 114 151 1631 1634 1652
75 8 59 117 199 1655 2119 2292 2295 2316
76 5 1617 1682 1685 2169 2194
77 5 118 197 2121 2318 5777
78 5 152 153 155 1685 2194
79 6 113 115 116 2317 2319 2498
80 2 118 5777
81 3 118 2057 5777
82 3 118 194 2057
83 5 157 2057 2126 2266 2297
84 9 86 156 157 267 2057 2264 2265 2383 5785
85 4 156 2262 2265 2758
86 5 84 156 495 2264 2818
87 8 560 1129 1130 1131 5461 6400 6401 6405
88 5 90 1131 6401 6402 6405
89 3 90 138 6405
90 6 88 89 1131 5470 5471 6405
91 4 123 1607 1642 5745
92 2 123 252
93 4 249 1645 1675 4205
94 3 249 1609 1647
95 5 34 36 125 1647 4206
96 2 1647 4206
97 1 4206
98 3 40 127 249
99 3 263 2115 5749
100 7 36 40 125 170 219 249 4206
101 3 129 180 251
102 5 27 1589 1625 4206 4207
103 3 65 263 2115
104 19 28 37 40 42 45 46 66 67 126 127 129 147 163 164 239 246 249 4209 5748
105 7 29 30 46 67 128 147 148
106 13 38 39 41 43 44 129 184 187 240 241 250 252 1650
107 6 29 47 67 128 129 148
108 8 44 68 252 263 1650 1998 2307 2312
109 5 47 51 1614 1650 4206
110 3 49 2312 2321
111 21 48 50 51 52 53 54 55 69 70 131 132 135 149 210 254 255 1595 1650 1651 2312 4207
112 6 150 151 1651 1682 2169 2194
113 17 55 58 71 73 74 79 134 135 151 255 263 1630 1631 1651 1652 2317 2319
114 5 74 151 1634 1652 2171
115 1 79
116 1 79
117 6 75 205 264 1655 2003 2119
118 11 77 80 81 82 192 193 194 197 265 2057 5777
119 2 260 267
120 11 60 61 188 199 258 259 261 265 266 267 2007
121 3 60 261 267
122 5 16 17 140 499 2010
123 13 33 91 92 158 182 216 217 252 262 1608 1642 1644 5745
124 7 63 166 220 252 1644 1777 1997
125 6 34 36 95 100 170 249
126 5 104 162 173 239 249
127 7 40 98 104 246 247 249 5748
128 4 29 67 105 107
129 14 38 43 47 67 101 104 106 107 164 179 180 241 251 1650
130 2 47 1680
131 4 48 51 111 1650
132 2 48 111
133 2 73 263
134 5 58 72 113 263 2317
135 8 54 69 70 71 111 113 149 1651
136 2 61 261
137 5 138 544 5472 6405 28382
138 3 89 137 6405
139 16 1 7 9 12 14 15 22 143 144 328 348 479 2179 2180 2203 2205
140 8 16 17 122 499 1689 1979 2010 2179
141 2 4 2179
142 3 5 19 2202
143 19 1 2 3 4 5 6 7 8 11 15 19 20 139 1689 2179 2180 2201 2202 2205
144 4 1 9 14 139
145 4 574 6406 28374 28501
146 3 45 66 4209
147 7 28 30 46 104 105 4206 4209
148 6 29 30 47 105 107 4206
149 7 52 53 55 70 71 111 135
150 3 112 1682 2169
151 7 74 112 113 114 1651 2171 2194
152 2 78 2194
153 3 78 155 2194
154 2 51 4206
155 4 78 153 1685 2194
156 6 84 85 86 495 2265 2758
157 6 83 84 2057 2264 2266 2818
158 4 123 217 234 262
159 1 238
160 2 219 249
161 2 249 5748
162 6 126 173 177 238 239 249
163 3 104 246 5748
164 4 104 129 179 239
165 2 217 244
166 3 124 220 252
167 3 237 252 262
168 2 220 252
169 2 219 249
170 4 100 125 219 249
171 2 183 252
172 1 239
173 3 126 162 239
174 2 219 249
175 2 239 251
176 2 220 252
177 10 162 183 218 222 236 238 239 248 252 262
178 6 222 239 240 248 250 252
179 4 129 164 239 251
180 7 101 129 221 239 241 250 251
181 2 187 252
182 2 123 252
183 5 171 177 218 252 262
184 2 106 252
185 1 252
186 2 39 252
187 4 106 181 240 252
188 3 120 265 266
189 1 267
190 2 265 2120
191 2 265 2120
192 2 118 265
193 1 118
194 9 82 118 229 230 231 232 233 267 2057
195 1 267
196 3 265 2318 5771
197 4 77 118 265 2318
198 1 265
199 8 75 120 258 265 2007 2120 2295 2316
200 1 267
201 5 209 242 253 263 2115
202 1 253
203 3 208 2312 2321
204 2 263 2321
205 6 117 224 226 243 264 2119
206 3 257 2003 2379
207 6 228 264 483 1683 2122 5770
208 4 203 263 2312 2321
209 4 201 253 263 2115
210 7 49 111 254 255 263 2312 2321
211 3 243 264 2499
212 1 489
213 5 256 263 489 2317 2497
214 3 257 264 2003
215 6 225 227 257 264 2003 2379
216 4 33 123 252 262
217 9 123 158 165 234 244 249 262 1643 5745
218 4 177 183 245 262
219 6 100 160 169 170 174 249
220 5 124 166 168 176 252
221 3 180 239 250
222 4 177 178 248 252
223 3 25 252 263
224 3 205 243 264
225 2 215 264
226 4 205 243 2119 2499
227 3 215 257 2379
228 2 207 483
229 2 194 267
230 1 194
231 2 194 267
232 2 194 2057
233 3 194 267 2057
234 3 158 217 262
235 1 262
236 2 177 262
237 3 167 252 262
238 3 159 162 177
239 15 104 126 162 164 172 173 175 177 178 179 180 221 248 250 251
240 5 106 178 187 250 252
241 5 38 106 129 180 250
242 3 201 253 263
243 6 205 211 224 226 264 2499
244 2 165 217
245 2 218 262
246 4 104 127 163 5748
247 2 127 5748
248 4 177 178 222 239
249 22 34 40 93 94 98 100 104 125 126 127 160 161 162 169 170 174 217 219 1609 1647 1675 5748
250 7 106 178 180 221 239 240 241
251 6 101 129 175 179 180 239
252 38 24 25 33 35 39 41 44 63 64 92 106 108 123 124 166 167 168 171 176 177 178 181 182 183 184 185 186 187 216 220 222 223 237 240 262 263 1644 1997
253 5 201 202 209 242 263
254 2 111 210
255 6 55 73 111 113 210 263
256 6 213 263 435 489 511 2495
257 7 206 214 215 227 264 2003 2379
258 3 120 199 265
259 3 120 266 267
260 2 119 267
261 8 60 61 62 120 121 136 267 1977
262 14 123 158 167 177 183 216 217 218 234 235 236 237 245 252
263 34 25 26 65 68 73 99 103 108 113 133 134 201 204 208 209 210 213 223 242 252 253 255 256 430 431 489 1997 2115 2312 2317 2321 2495 5749 5761
264 22 117 205 207 211 214 215 224 225 243 257 457 459 460 461 481 483 503 504 512 1683 2003 2499
265 15 118 120 188 190 191 192 196 197 198 199 258 2120 2316 2318 5771
266 3 120 188 259
267 44 60 62 84 119 120 121 189 194 195 200 229 231 233 259 260 261 336 337 339 340 341 410 411 413 500 1687 1957 1958 1959 2057 2265 2298 2299 2320 2383 2620 2621 2757 5785 5786 5787 5788 5792 5795
268 3 484 485 2750
269 5 485 486 2750 2892 2914
270 3 276 486 488
271 4 2753 2807 2894 2895
272 3 277 2753 2895
273 2 490 2760
274 4 278 490 2754 3433
275 3 484 2750 2913
276 9 270 486 488 1941 2123 2381 2806 2894 5781
277 3 272 2753 2895
278 5 274 490 2754 2760 2915
279 2 3057 3139
280 4 404 3060 3144 3273
281 1 3060
282 3 379 403 3060
283 1 3150
284 1 3150
285 2 3064 3150
286 3 3070 3072 4268
287 2 2655 3074
288 1 364
289 2 364 367
290 2 364 365
291 3 365 652 665
292 4 314 345 366 609
293 1 367
294 3 314 346 359
295 1 367
296 2 346 691
297 4 329 360 367 2803
298 11 300 301 332 346 352 353 361 362 390 394 691
299 2 390 394
300 3 298 332 352
301 3 298 332 346
302 5 23 306 370 391 392
303 1 2538
304 2 650 2538
305 4 23 310 591 1993
306 14 23 302 307 363 370 385 390 393 394 613 649 660 664 691
307 4 306 363 393 660
308 2 355 368
309 4 354 356 684 686
310 16 23 305 368 370 385 391 392 393 669 678 680 695 1993 2028 2100 2906
311 1 695
312 1 695
313 6 640 654 684 686 692 698
314 9 292 294 332 345 352 359 366 653 672
315 2 2167 2617
316 2 2167 2617
317 2 2617 2690
318 3 424 492 3385
319 4 341 413 419 492
320 2 499 2627
321 1 499
322 1 499
323 1 499
324 2 499 2627
325 1 499
326 1 499
327 4 479 2631 2694 5828
328 6 139 348 479 2181 2205 2694
329 3 297 360 367
330 3 358 360 638
331 7 351 360 668 682 723 2803 3441
332 7 298 300 301 314 346 352 359
333 2 2650 6433
334 2 2646 3272
335 2 633 3152
336 3 267 500 2621
337 2 267 2621
338 4 62 2009 2620 5789
339 3 267 500 2621
340 4 267 415 5792 5795
341 9 267 319 411 412 413 472 492 2299 5795
342 5 496 2629 2821 2918 2920
343 1 499
344 2 499 1978
345 3 292 314 366
346 8 294 296 298 301 332 353 359 691
347 3 473 499 2627
348 3 139 328 479
349 5 478 479 2436 3138 3168
350 4 369 2093 2786 3441
351 3 331 360 2803
352 6 298 300 314 332 362 672
353 3 298 346 691
354 1 309
355 3 308 368 387
356 8 309 386 388 389 637 641 651 684
357 2 389 641
358 1 330
359 4 294 314 332 346
360 12 297 329 330 331 351 367 369 638 639 648 2803 3441
361 3 298 390 394
362 5 298 352 390 664 672
363 2 306 307
364 3 288 289 290
365 3 290 291 652
366 6 292 314 345 603 609 653
367 9 289 293 295 297 329 360 639 665 674
368 7 308 310 355 387 388 669 694
369 5 350 360 638 2093 3441
370 5 302 306 310 385 392
371 3 2643 4296 6439
372 2 404 3144
373 2 3060 3275
374 1 3060
375 3 2645 3059 3274
376 1 3060
377 2 404 3144
378 6 2645 2648 3059 3143 4240 4241
379 9 282 403 632 3060 3061 3063 4242 6440 6441
380 2 3067 6450
381 3 3067 3116 6450
382 3 2652 3070 4268
383 5 2654 2656 2660 3075 3076
384 2 2662 3076
385 4 306 310 370 393
386 1 356
387 2 355 368
388 4 356 368 637 694
389 3 356 357 641
390 7 298 299 306 361 362 394 664
391 4 23 302 310 392
392 4 302 310 370 391
393 7 306 307 310 385 660 680 946
394 7 298 299 306 361 390 683 691
395 1 2874
396 5 2874 3058 6407 6427 6435
397 2 2731 3058
398 1 3058
399 3 615 2270 3058
400 4 401 2040 3058 3271
401 4 400 2040 2647 3058
402 1 3060
403 3 282 379 3060
404 9 280 372 377 625 2649 2732 3058 3060 3144
405 4 2875 3062 3063 3118
406 2 632 2653
407 4 632 2652 2653 3070
408 5 409 479 2203 2436 5821
409 3 408 479 2436
410 4 267 500 5787 5792
411 2 267 341
412 3 341 472 5795
413 5 267 319 341 419 2757
414 3 421 500 2624
415 6 340 426 500 3385 5792 5795
416 2 507 3388
417 3 508 2632 3436
418 1 500
419 7 319 413 492 2265 2757 3386 3427
420 2 500 3434
421 2 414 500
422 3 474 495 2818
423 4 475 491 495 2758
424 5 318 477 492 3385 3431
425 2 498 3434
426 4 415 500 3385 3431
427 2 498 3434
428 1 3437
429 8 447 448 464 465 470 1265 3156 3459
430 2 263 489
431 2 263 489
432 1 481
433 1 481
434 3 482 483 512
435 3 256 489 511
436 1 483
437 1 489
438 1 483
439 5 483 484 513 2122 5770
440 3 484 2122 2913
441 1 489
442 2 484 5772
443 1 489
444 3 489 2498 3383
445 2 507 3388
446 2 463 3388
447 4 429 450 464 3156
448 3 429 470 3156
449 2 466 1260
450 3 447 464 1265
451 6 468 471 1226 1259 1262 3156
452 1 481
453 3 481 509 3423
454 1 481
455 4 481 509 3382 3423
456 2 481 3382
457 2 264 481
458 1 481
459 2 264 481
460 4 264 481 510 2499
461 4 264 483 504 512
462 1 489
463 3 446 2921 3388
464 4 429 447 450 1265
465 7 429 469 1265 3459 3467 3469 3956
466 2 449 1260
467 1 1263
468 2 451 1226
469 9 465 712 715 1220 1240 1241 1256 1265 3956
470 7 429 448 3156 3459 3467 3957 6788
471 2 451 3156
472 5 341 412 492 3385 5795
473 3 347 499 2627
474 2 422 495
475 4 423 491 495 3427
476 1 3430
477 4 424 492 3427 3431
478 5 349 2436 3138 3167 3168
479 13 139 327 328 348 349 408 409 2203 2436 2631 2694 3168 5828
480 1 503
481 23 264 432 433 452 453 454 455 456 457 458 459 460 502 503 509 510 2115 2310 2496 2499 3382 3423 5763
482 3 434 503 512
483 13 207 228 264 434 436 438 439 461 504 505 506 512 5770
484 10 268 275 439 440 442 513 2122 2750 2913 5772
485 4 268 269 2750 2892
486 5 269 270 276 1941 2914
487 1 5779
488 4 270 276 2753 2894
489 25 212 213 256 263 430 431 435 437 441 443 444 462 501 511 2317 2495 2497 2498 2752 2754 3383 5761 5766 5775 5779
490 5 273 274 278 2760 3433
491 4 423 475 2758 3427
492 10 318 319 341 419 424 472 477 3385 3386 3427
493 1 3430
494 1 3425
495 11 86 156 422 423 474 475 2758 2818 3425 3426 3427
496 8 342 2629 2691 2918 2920 3390 3424 3428
497 1 2058
498 4 425 427 3434 3803
499 25 16 122 140 320 321 322 323 324 325 326 343 344 347 473 1689 1978 2010 2058 2179 2627 2629 2691 2816 2817 3424
500 21 267 336 339 410 414 415 418 420 421 426 2009 2128 2355 2620 2621 2624 3431 3434 3803 5787 5792
501 2 489 2495
502 1 481
503 5 264 480 481 482 512
504 3 264 461 483
505 1 483
506 1 483
507 3 416 445 3388
508 3 417 2632 3436
509 4 453 455 481 3423
510 2 460 481
511 3 256 435 489
512 6 264 434 461 482 483 503
513 3 439 484 2122
514 4 525 3813 3855 6725
515 4 3856 5823 6727 6776
516 2 3856 6728
517 2 3433 3798
518 3 3456 3739 3813
519 2 525 3813
520 2 525 3813
521 2 3456 3813
522 5 3396 3740 3814 4524 6729
523 1 4524
524 2 4524 6730
525 6 514 519 520 3456 3813 3855
526 4 3396 4524 6730 6778
527 2 533 5456
528 3 533 540 5463
529 3 1130 5461 6400
530 2 580 582
531 1 582
532 1 5456
533 6 527 528 540 581 5456 5463
534 5 539 581 5463 5473 6404
535 3 539 546 547
536 4 551 565 28375 28499
537 1 572
538 2 561 572
539 17 534 535 546 547 548 558 561 565 570 571 579 581 585 586 5465 6404 28499
540 8 528 533 5456 5457 5458 5463 6399 6404
541 3 5458 6399 6404
542 3 549 559 5467
543 3 552 560 6405
544 4 137 553 6405 28382
545 3 557 6406 28382
546 2 535 539
547 2 535 539
548 5 539 558 5458 5464 6404
549 8 542 559 561 562 565 572 573 5467
550 2 564 1132
551 4 536 562 565 28375
552 8 543 560 563 564 573 1132 6400 6405
553 7 544 563 564 1132 6403 6405 28382
554 2 28375 28499
555 2 28375 28499
556 2 28375 28499
557 5 545 574 6406 28381 28382
558 3 539 548 5465
559 4 542 549 572 5467
560 5 87 543 552 6400 6405
561 5 538 539 549 565 572
562 5 549 551 565 573 28375
563 9 552 553 566 573 1132 28376 28378 28382 28485
564 5 550 552 553 1132 6405
565 7 536 539 549 551 561 562 28499
566 4 563 573 28375 28485
567 2 28375 28485
568 2 28376 28485
569 2 28375 28485
570 2 539 5465
571 1 539
572 6 537 538 549 559 561 5467
573 9 549 552 562 563 566 5467 5468 6400 28375
574 6 145 557 6406 28380 28381 28501
575 1 580
576 1 580
577 4 579 580 581 586
578 5 580 583 2228 2602 5462
579 5 539 577 581 585 586
580 14 530 575 576 577 578 582 583 584 586 2228 2587 2602 3620 5462
581 7 533 534 539 577 579 585 5463
582 3 530 531 580
583 2 578 580
584 2 580 586
585 3 539 579 581
586 11 539 577 579 580 584 2227 2251 2259 2587 28384 28499
587 4 595 610 638 2093
588 4 596 610 612 638
589 3 592 595 2067
590 2 598 1815
591 8 23 305 593 613 1845 1992 1993 2052
592 7 589 594 595 596 601 610 2067
593 4 591 613 1992 2051
594 4 592 596 601 612
595 6 587 589 592 610 2067 2093
596 5 588 592 594 610 612
597 3 606 1814 2301
598 5 590 601 639 665 1815
599 5 602 605 607 608 665
600 6 603 606 609 2021 2022 2049
601 8 592 594 598 612 639 648 1815 2067
602 6 599 604 605 607 665 1815
603 6 366 600 609 653 2049 2070
604 2 602 1815
605 2 599 602
606 6 597 600 1814 2021 2275 2301
607 4 599 602 608 665
608 3 599 607 665
609 4 292 366 600 603
610 6 587 588 592 595 596 638
611 2 613 664
612 6 588 594 596 601 638 648
613 7 23 306 591 593 611 664 2051
614 1 2237
615 10 399 2036 2037 2040 2237 2270 2389 2731 3058 3272
616 8 1665 1669 1706 2038 2039 2154 2239 2271
617 3 2157 2390 2646
618 5 1669 2156 2239 2240 2271
619 3 1669 1768 2240
620 2 1768 2240
621 2 1768 2240
622 8 2040 2041 2042 2158 2237 2241 2390 2646
623 3 2240 2272 2390
624 1 2390
625 7 404 2043 2158 2390 2647 2732 3058
626 2 2043 2649
627 1 2046
628 3 2159 2242 2659
629 7 642 647 659 708 2730 2745 4501
630 6 643 659 662 693 2745 4501
631 5 2388 2642 2650 2874 6434
632 11 379 406 407 2045 2159 2649 2652 2653 3061 3063 4242
633 9 335 2658 3069 3152 4269 4289 4290 4307 6452
634 6 2159 2652 2661 3072 3073 4268
635 2 2658 4290
636 8 2663 3030 4201 4291 5287 5447 5448 6457
637 8 356 388 645 651 669 694 2078 2100
638 9 330 360 369 587 588 610 612 648 2093
639 6 360 367 598 601 648 665
640 8 313 646 654 671 698 700 701 702
641 17 356 357 389 646 651 654 663 666 667 684 692 942 944 1135 1212 3379 4250
642 6 629 707 708 725 2743 4501
643 6 630 647 659 4501 4504 4523
644 3 1217 6719 6889
645 5 637 2029 2078 2100 2101
646 5 640 641 654 667 671
647 4 629 643 659 4501
648 5 360 601 612 638 639
649 2 306 660
650 2 304 2538
651 5 356 637 641 2078 3379
652 4 291 365 665 674
653 8 314 366 603 672 2070 2096 2109 2139
654 5 313 640 641 646 692
655 7 657 658 681 687 2055 2542 2929
656 1 693
657 2 655 2542
658 7 655 676 681 697 699 703 6244
659 5 629 630 643 647 2745
660 5 306 307 393 649 946
661 2 680 946
662 7 630 693 726 3483 4348 4501 4505
663 4 641 666 667 6389
664 8 306 362 390 611 613 672 2051 2109
665 11 291 367 598 599 602 607 608 639 652 674 1815
666 6 641 663 673 1212 6389 6392
667 11 641 646 663 671 6241 6262 6322 6379 6380 6381 6389
668 7 331 679 682 2739 2748 2788 2803
669 5 310 368 637 694 2100
670 5 673 944 1212 6263 6392
671 6 640 646 667 702 6237 6241
672 6 314 352 362 653 664 2109
673 4 666 670 1212 6392
674 3 367 652 665
675 3 678 681 696
676 2 658 681
677 1 2928
678 5 310 675 680 681 695
679 4 668 685 2739 2803
680 5 310 393 661 678 946
681 7 655 658 675 676 678 687 2928
682 5 331 668 723 2788 3462
683 2 394 691
684 6 309 313 356 641 686 692
685 8 679 2053 2098 2538 2539 2739 2803 2905
686 3 309 313 684
687 5 655 681 2055 2928 2940
688 1 2803
689 1 2803
690 1 2803
691 8 296 298 306 346 353 394 683 2802
692 4 313 641 654 684
693 7 630 656 662 2106 2745 2951 3483
694 4 368 388 637 669
695 4 310 311 312 678
696 1 675
697 1 658
698 2 313 640
699 1 658
700 1 640
701 1 640
702 3 640 671 6237
703 2 658 6244
704 3 732 1235 1250
705 4 711 713 722 738
706 4 722 740 741 2025
707 5 642 725 2743 3381 4503
708 3 629 642 2743
709 4 719 1257 3468 3498
710 1 1255
711 6 705 721 722 733 738 740
712 7 469 1206 1240 1241 1266 6710 6885
713 2 705 738
714 6 723 724 737 738 3441 3461
715 3 469 1256 3956
716 2 1235 1255
717 3 1235 1255 3452
718 2 737 738
719 6 709 1245 1257 3468 3498 6713
720 5 735 739 1137 1140 3399
721 4 711 734 737 738
722 7 705 706 711 724 738 740 2025
723 7 331 682 714 724 2025 3441 3462
724 5 714 722 723 738 2025
725 4 642 707 4501 4503
726 3 662 4501 4505
727 4 1223 1227 1240 1256
728 2 739 6723
729 1 2787
730 1 2787
731 3 739 1137 6723
732 8 704 1138 1211 1235 1247 1250 1255 6723
733 2 711 740
734 1 721
735 3 720 739 3399
736 3 3400 3441 3460
737 4 714 718 721 738
738 9 705 711 713 714 718 721 722 724 737
739 6 720 728 731 735 1137 6723
740 6 706 711 722 733 741 2025
741 3 706 740 2025
742 5 4439 5815 6068 6072 6078
743 1 4392
744 1 4392
745 1 3583
746 2 4439 6078
747 6 3581 4392 4393 5841 6098 6100
748 1 5841
749 1 5612
750 1 5615
751 1 5612
752 1 5615
753 1 4439
754 1 4439
755 1 4439
756 11 4439 4477 5603 5605 5606 5609 5612 5615 5621 5624 6078
757 3 3587 5898 6135
758 2 5909 6111
759 7 815 5627 5629 5630 6080 6081 6083
760 31 811 3582 3584 4471 4479 4485 5826 5834 5840 5842 5845 5881 5897 5901 5904 5905 5907 5908 5912 6097 6099 6101 6104 6105 6106 6125 6130 6131 6132 6133 6134
761 5 5899 5900 5914 6049 6111
762 1 6111
763 1 5938
764 2 6111 6153
765 1 5938
766 1 5952
767 4 5914 5952 6017 6049
768 1 6146
769 2 5910 6111
770 1 5938
771 1 5938
772 4 816 5634 5705 5706
773 1 5938
774 1 5952
775 1 5938
776 20 815 842 4439 5625 5626 5628 5631 5632 5902 5903 5915 5916 5917 5918 5938 6018 6079 6082 6085 6086
777 1 5952
778 1 5952
779 1 5952
780 1 5952
781 4 822 842 5634 6019
782 1 5938
783 1 5952
784 1 5952
785 1 5938
786 3 842 5938 6018
787 1 5938
788 1 5952
789 2 5952 6049
790 1 6153
791 1 5952
792 1 5952
793 1 6111
794 3 5923 6111 6153
795 1 6111
796 1 5952
797 1 6049
798 1 6049
799 1 6049
800 1 6049
801 1 6150
802 2 5979 6035
803 1 6152
804 1 6039
805 1 6039
806 3 6053 6151 6153
807 3 5690 6064 6118
808 5 4439 5815 6067 6070 6078
809 2 4439 6078
810 3 5815 6069 6078
811 2 760 4485
812 1 6085
813 1 6085
814 3 5911 5913 6146
815 6 759 776 5632 6083 6084 6085
816 3 772 5497 5706
817 2 5634 5705
818 1 6019
819 1 6019
820 1 5634
821 1 5634
822 3 781 5634 6019
823 1 5636
824 1 5938
825 2 5636 6023
826 1 6023
827 2 5636 6023
828 1 5930
829 1 6023
830 1 897
831 1 897
832 4 3587 5911 6135 6146
833 2 897 6145
834 1 6049
835 1 5954
836 4 5913 6146 6148 6153
837 2 5980 6027
838 2 5980 6027
839 2 5966 5978
840 9 5954 5960 5965 5966 5969 5970 5971 5974 5976
841 3 5973 5990 6040
842 39 776 781 786 5632 5634 5930 5933 5934 5937 5938 5941 5945 5946 5947 5948 5949 5951 5953 5954 5955 5957 5959 5961 5962 5963 5964 5967 5968 5972 5977 5980 6018 6019 6024 6027 6028 6029 6030 6031
843 1 6044
844 2 6035 6153
845 1 6044
846 1 6044
847 1 6044
848 1 6044
849 1 6044
850 3 6007 6026 6044
851 1 5992
852 1 5992
853 2 5986 5992
854 1 6044
855 3 5988 5989 6039
856 3 5989 5992 6039
857 1 6044
858 1 6044
859 1 6044
860 1 6044
861 1 6044
862 1 6044
863 9 5653 5981 5982 5984 5985 5987 5992 6039 6044
864 1 6044
865 3 6007 6037 6044
866 1 6224
867 1 6225
868 2 5538 5539
869 1 5541
870 3 912 923 6087
871 2 925 6090
872 10 897 5582 5583 5586 5587 6043 6052 6118 6152 6524
873 3 934 1058 6600
874 2 934 6600
875 3 935 6602 6603
876 5 906 1076 5540 5541 5542
877 3 5483 5541 5543
878 2 1060 5549
879 2 5558 5559
880 1 919
881 2 908 6012
882 6 1005 1095 1100 6632 6633 6634
883 2 919 5572
884 7 917 1005 1031 6506 6508 6620 6635
885 2 923 6088
886 2 910 6088
887 1 927
888 2 914 927
889 6 910 911 912 922 924 6088
890 4 4495 6089 6090 6091
891 4 914 925 4495 6090
892 3 913 915 4493
893 2 4494 5697
894 1 929
895 4 969 3591 3624 6511
896 2 970 3624
897 13 830 831 833 872 3588 3590 6145 6147 6150 6152 6512 6514 6524
898 7 1037 1081 1082 1089 5550 6490 6491
899 2 5554 6496
900 8 1038 1090 1091 5552 6494 6496 6499 6629
901 2 1094 2674
902 6 1041 1042 1093 1094 6504 6630
903 1 6012
904 11 919 1040 1085 1094 1096 5556 5561 6497 6501 6507 6631
905 3 919 6509 6510
906 9 876 936 1076 1077 5483 5540 5544 5545 6604
907 7 937 1077 1078 5546 5547 5548 5549
908 5 881 1102 5571 5574 6012
909 1 6013
910 3 886 889 6088
911 1 889
912 5 870 889 922 923 6088
913 2 892 4493
914 5 888 891 927 4493 4495
915 3 892 927 4493
916 1 4493
917 5 884 1031 6506 6508 6636
918 4 5742 6013 6015 6509
919 27 880 883 904 905 1084 1096 5553 5555 5557 5558 5560 5562 5565 5569 5572 5573 5576 5577 5578 5579 6010 6013 6015 6507 6509 6510 6637
920 2 6015 6509
921 3 1102 5742 6013
922 2 889 912
923 4 870 885 912 6088
924 1 889
925 3 871 891 6090
926 2 4495 6090
927 5 887 888 914 915 4493
928 1 4493
929 4 894 4489 4492 4493
930 5 1035 6479 6483 6625 6682
931 2 1064 1111
932 12 1063 1064 1111 5522 5523 5524 5525 5528 6591 6592 6594 6596
933 4 1060 1074 6599 6602
934 24 873 874 1058 1065 1066 1067 1068 1069 1070 1071 1073 1075 5527 5531 5532 5534 5535 5536 5537 6595 6597 6598 6600 6601
935 5 875 1060 1074 6602 6605
936 6 906 1060 1077 1087 6604 6605
937 5 907 1060 1077 1078 1087
938 3 1060 1078 1080
939 1 5589
940 8 997 1027 5585 5588 6164 6165 6525 6531
941 11 945 999 1027 6167 6168 6169 6170 6171 6173 6530 6544
942 5 641 1135 4233 4250 4251
943 1 4233
944 6 641 670 1135 1212 4232 6263
945 3 941 1027 6544
946 4 393 660 661 680
947 3 1054 1121 6573
948 1 1121
949 2 966 1053
950 2 1054 6587
951 3 960 967 968
952 1 968
953 1 968
954 1 968
955 13 1003 1004 1050 1054 1055 1056 1119 1120 1123 5596 6577 6587 6590
956 5 961 963 3573 6549 6552
957 3 3595 6572 6586
958 1 6586
959 1 1054
960 6 951 967 968 1051 1052 1053
961 1 956
962 1 6552
963 12 956 1030 3573 6540 6541 6546 6548 6549 6552 6558 6565 6570
964 2 3595 6566
965 9 1054 3595 6562 6563 6564 6567 6568 6571 6572
966 2 949 1053
967 3 951 960 1053
968 9 951 952 953 954 960 3627 6583 6585 6589
969 2 895 6511
970 5 896 3624 3646 6513 6517
971 9 1030 5592 5594 6179 6180 6181 6183 6561 6569
972 2 5596 6577
973 2 1004 6186
974 3 1004 6188 6189
975 3 1004 5599 6588
976 1 6229
977 4 6226 6227 6228 6229
978 3 1011 6471 6621
979 8 1008 1010 1013 1124 6208 6214 6230 6655
980 4 1010 1128 6211 6214
981 8 1033 6468 6469 6470 6610 6611 6612 6672
982 12 1011 1109 6471 6619 6621 6639 6644 6645 6647 6650 6652 6662
983 6 1010 1014 1033 1128 6215 6216
984 1 6617
985 1 6678
986 1 6678
987 5 1034 1105 6659 6663 6673
988 3 1017 6218 6672
989 2 1017 6617
990 23 1013 1014 1015 1016 1017 1018 6205 6207 6213 6214 6217 6218 6219 6221 6667 6670 6672 6676 6677 6679 6680 6684 6687
991 4 6691 28386 28387 28494
992 10 1035 1106 6483 6678 6681 6690 6695 6696 6698 28512
993 1 28503
994 3 1022 1023 6519
995 2 1023 6519
996 2 1027 6522
997 3 940 1027 6531
998 2 1027 6529
999 3 941 1027 6530
1000 3 1027 6532 6544
1001 2 1029 6538
1002 2 1028 6551
1003 2 955 6577
1004 14 955 973 974 975 1056 5596 5598 5599 6185 6186 6187 6189 6193 6588
1005 13 882 884 1095 1097 1098 1099 1100 1107 6467 6618 6620 6632 6651
1006 2 6466 6655
1007 4 1124 6466 6609 6655
1008 4 979 1124 6208 6655
1009 3 1103 6624 6663
1010 13 979 980 983 1033 1128 6209 6210 6211 6212 6214 6468 6653 6655
1011 6 978 982 6471 6613 6621 6662
1012 1 6214
1013 15 979 990 6197 6198 6199 6200 6214 6230 6231 6236 6660 6664 6665 6666 6667
1014 8 983 990 1033 1128 6214 6215 6216 6672
1015 11 990 6201 6202 6203 6217 6667 6668 6670 6674 6675 6677
1016 4 990 6204 6205 6677
1017 17 988 989 990 1032 6218 6221 6222 6477 6478 6480 6617 6672 6683 6685 6686 6689 28388
1018 8 990 6220 6221 6687 6692 6697 28388 28491
1019 2 28505 28507
1020 4 1059 2672 3663 3665
1021 1 6519
1022 2 994 6519
1023 14 994 995 1044 1061 1114 1115 1116 6515 6516 6517 6518 6519 6520 6523
1024 2 1117 3593
1025 2 1117 6538
1026 1 1117
1027 21 940 941 945 996 997 998 999 1000 1117 6521 6522 6523 6525 6526 6527 6528 6529 6531 6532 6538 6544
1028 7 1002 1048 6539 6546 6547 6550 6551
1029 13 1001 1117 3593 5590 5591 6172 6175 6536 6538 6542 6543 6545 6553
1030 11 963 971 5594 6548 6554 6557 6561 6570 6574 6575 6576
1031 5 884 917 6465 6508 6620
1032 2 1017 6672
1033 7 981 983 1010 1014 6216 6468 6672
1034 4 987 6472 6614 6659
1035 7 930 992 6479 6483 6615 6616 6681
1036 4 2673 6488 6489 6628
1037 7 898 1082 1089 2672 3633 6491 6492
1038 7 900 1062 1091 3667 6494 6495 6499
1039 1 6500
1040 5 904 1094 2674 6500 6501
1041 4 902 1093 1094 2674
1042 4 902 1092 1093 2674
1043 3 1107 6502 6503
1044 6 1023 1061 1115 1116 3625 3646
1045 3 1116 3625 6523
1046 1 6537
1047 6 3573 3593 3650 6533 6534 6536
1048 6 1028 3573 6535 6537 6539 6546
1049 1 6586
1050 2 955 6577
1051 1 960
1052 1 960
1053 4 949 960 966 967
1054 11 947 950 955 959 965 1121 1122 1123 6568 6573 6587
1055 2 955 6590
1056 2 955 1004
1057 2 1111 2668
1058 6 873 934 1065 1112 2672 6600
1059 3 1020 2672 3665
1060 21 878 933 935 936 937 938 1072 1074 1078 1079 1080 1087 1088 2672 3664 5549 6599 6605 6606 6607 6608
1061 6 1023 1044 1114 1115 3646 6517
1062 4 1038 2673 3659 3667
1063 2 932 6592
1064 3 931 932 1111
1065 3 934 1058 1112
1066 1 934
1067 1 934
1068 2 934 5532
1069 1 934
1070 2 934 5534
1071 1 934
1072 2 1060 6599
1073 1 934
1074 4 933 935 1060 6602
1075 1 934
1076 2 876 906
1077 5 906 907 936 937 1087
1078 5 907 937 938 1060 5547
1079 1 1060
1080 2 938 1060
1081 2 898 5550
1082 3 898 1037 6491
1083 1 5554
1084 1 919
1085 1 904
1086 3 1102 5574 6013
1087 4 936 937 1060 1077
1088 2 1060 6606
1089 2 898 1037
1090 2 900 6496
1091 3 900 1038 6499
1092 2 1042 2674
1093 4 902 1041 1042 2674
1094 10 901 902 904 1040 1041 2674 6504 6507 6630 6631
1095 3 882 1005 6632
1096 3 904 919 6507
1097 1 1005
1098 1 1005
1099 1 1005
1100 2 882 1005
1101 1 5567
1102 14 908 921 1086 5567 5568 5570 5574 5575 5740 5741 5742 6011 6012 6013
1103 3 1009 3677 6663
1104 2 3677 6656
1105 6 987 3677 6622 6623 6663 6673
1106 10 992 3677 3679 6475 6669 6671 6678 28479 28506 28512
1107 6 1005 1043 2674 3662 6502 6651
1108 5 3677 6638 6640 6641 6642
1109 7 982 3677 6639 6643 6654 6662 6663
1110 2 3678 6476
1111 4 931 932 1057 1064
1112 2 1058 1065
1113 1 6463
1114 3 1023 1061 6517
1115 3 1023 1044 1061
1116 5 1023 1044 1045 3625 6523
1117 9 1024 1025 1026 1027 1029 3593 3625 6523 6538
1118 6 3573 3594 3675 6552 6555 6560
1119 1 955
1120 1 955
1121 3 947 948 1054
1122 1 1054
1123 2 955 1054
1124 6 979 1007 1008 6208 6466 6655
1125 1 6229
1126 1 6234
1127 1 6234
1128 7 980 983 1010 1014 6211 6214 6215
1129 3 87 1131 5461
1130 4 87 529 5461 6400
1131 9 87 88 90 1129 5460 5461 5466 5469 6401
1132 5 550 552 553 563 564
1133 1 1245
1134 5 1244 1245 1257 1272 3468
1135 3 641 942 944
1136 3 1238 1274 6839
1137 3 720 731 739
1138 3 732 1255 3398
1139 1 3399
1140 2 720 3399
1141 2 1199 3618
1142 9 1153 4922 4928 4929 4931 5088 5217 6764 6765
1143 4 1182 2611 3616 4530
1144 3 1159 1170 1199
1145 5 1172 1183 1185 4832 4899
1146 5 1162 1163 1184 4521 6354
1147 1 1186
1148 2 1186 4358
1149 3 1186 4989 28393
1150 5 1188 4989 6364 6366 28393
1151 4 1189 4837 28393 28498
1152 3 1190 4655 6373
1153 4 1142 5088 5217 6766
1154 5 1167 1168 1175 4344 4891
1155 4 1168 3466 4514 4636
1156 4 1177 4514 4590 4636
1157 9 1178 1195 2225 2226 3397 4526 4707 4819 6349
1158 2 1181 4709
1159 3 1144 1170 1199
1160 6 1172 1183 1185 4594 4649 4899
1161 9 1169 1171 1173 1185 1198 1199 3618 4519 4530
1162 4 1146 4521 4575 6354
1163 3 1146 1184 4521
1164 4 1200 1202 4591 6354
1165 2 1188 1191
1166 1 1190
1167 5 1154 1175 4344 4345 4889
1168 9 1154 1155 1175 1176 3466 4636 4726 4811 4891
1169 4 1161 1185 1198 4593
1170 6 1144 1159 1180 1199 3618 4520
1171 2 1161 1199
1172 5 1145 1160 1183 1185 4594
1173 3 1161 1185 1199
1174 9 1187 2603 3618 3620 3983 4576 4577 4591 6354
1175 9 1154 1167 1168 3464 3465 3605 3606 4345 4726
1176 3 1168 3466 4726
1177 9 1156 1194 1195 3397 4514 4525 4590 4894 6347
1178 3 1157 1195 6349
1179 7 1196 4515 4526 4581 4582 4708 4709
1180 3 1170 3618 4520
1181 3 1158 4647 4709
1182 5 1143 1199 3616 4530 4531
1183 4 1145 1160 1172 4899
1184 7 1146 1163 1199 1201 2230 4521 6354
1185 13 1145 1160 1161 1169 1172 1173 1197 1199 1203 2230 4593 4594 4832
1186 11 1147 1148 1149 1204 2230 4358 4833 4834 4989 6361 28393
1187 6 1174 1202 3967 3983 4591 28393
1188 10 1150 1165 1191 4359 4361 4990 6366 6369 6371 28393
1189 3 1151 4837 28393
1190 6 1152 1166 4655 6373 28393 28480
1191 3 1165 1188 28393
1192 1 3466
1193 1 28517
1194 3 1177 4590 4894
1195 7 1157 1177 1178 3397 4525 4819 6349
1196 7 1179 4582 4639 4647 4708 4709 4824
1197 4 1185 3618 4518 4593
1198 6 1161 1169 3618 4519 4593 6353
1199 20 1141 1144 1159 1161 1170 1171 1173 1182 1184 1185 2230 2611 3616 3618 4517 4521 4530 4531 4575 6354
1200 4 1164 4576 4591 6354
1201 2 1184 2230
1202 6 1164 1187 2230 4591 6354 28393
1203 2 1185 2230
1204 2 1186 2230
1205 6 1225 1254 2870 2909 3875 6716
1206 2 712 1266
1207 6 1213 1218 1239 1251 1260 1263
1208 2 1228 6707
1209 2 1229 6709
1210 5 1222 1243 1247 1249 1269
1211 4 732 1243 1247 1250
1212 5 641 666 670 673 944
1213 5 1207 1218 1260 2805 2823
1214 3 1232 3842 6719
1215 7 1216 1219 1225 1234 1243 1269 1275
1216 7 1215 1219 1234 1242 1252 1269 1274
1217 5 644 1233 2735 6719 6889
1218 6 1207 1213 1251 2679 2823 3478
1219 6 1215 1216 1225 1242 6717 6891
1220 5 469 1229 1241 1265 1271
1221 4 1230 1241 6885 6893
1222 3 1210 1243 1269
1223 3 727 1240 1256
1224 4 1268 2719 3771 6713
1225 8 1205 1215 1219 1254 1275 6718 6890 6891
1226 3 451 468 1262
1227 4 727 1240 1256 6710
1228 5 1208 1261 1264 1276 6707
1229 5 1209 1220 1265 1271 6709
1230 5 1221 1241 6709 6872 6893
1231 2 1236 6713
1232 6 1214 2720 3018 3830 3842 6719
1233 2 1217 2735
1234 6 1215 1216 1248 1252 1253 1269
1235 9 704 716 717 732 1250 1255 2883 3440 3452
1236 3 1231 1258 6713
1237 6 1258 1267 3458 3468 3828 6713
1238 4 1136 1274 6789 6839
1239 3 1207 1251 1263
1240 7 469 712 727 1223 1227 1256 6710
1241 9 469 712 1220 1221 1230 1271 6709 6872 6885
1242 6 1216 1219 1274 6717 6792 6888
1243 8 1210 1211 1215 1222 1247 1250 1269 1275
1244 2 1134 1272
1245 6 719 1133 1134 1257 1273 6713
1246 3 1274 6717 6789
1247 6 732 1210 1211 1243 1249 6723
1248 3 1234 1253 1269
1249 5 1210 1247 1269 6723 6892
1250 11 704 732 1211 1235 1243 1254 1275 2870 2883 3022 3875
1251 10 1207 1218 1239 1263 1272 1276 2679 3468 3478 3480
1252 3 1216 1234 1269
1253 3 1234 1248 1269
1254 5 1205 1225 1250 1275 3875
1255 9 710 716 717 732 1138 1235 2850 3398 3452
1256 8 469 715 727 1223 1227 1240 3956 6710
1257 5 709 719 1134 1245 3468
1258 3 1236 1237 6713
1259 3 451 2780 3156
1260 6 449 466 1207 1213 1270 2805
1261 1 1228
1262 2 451 1226
1263 5 467 1207 1239 1251 1276
1264 1 1228
1265 7 429 450 464 465 469 1220 1229
1266 4 712 1206 6710 6885
1267 4 1237 3733 3828 6713
1268 4 1224 2719 3771 6713
1269 12 1210 1215 1216 1222 1234 1243 1248 1249 1252 1253 1274 6892
1270 2 1260 2805
1271 4 1220 1229 1241 6709
1272 6 1134 1244 1251 3468 6706 6708
1273 2 1245 6713
1274 12 1136 1216 1238 1242 1246 1269 6717 6789 6792 6839 6886 6892
1275 5 1215 1225 1243 1250 1254
1276 4 1228 1251 1263 6707
1277 2 7005 7119
1278 4 3355 5223 7005 7119
1279 8 4143 5281 5317 5318 7007 7055 7078 7156
1280 2 7010 7102
1281 4 3280 4362 5375 5377
1282 8 4144 4362 5225 5375 5377 5411 7008 7013
1283 8 3355 5223 5224 5410 7005 7010 7054 7155
1284 4 3356 5376 7010 7103
1285 10 3356 5226 5228 5282 5378 5380 5412 7010 7016 7103
1286 9 1289 1301 1302 4144 5283 5377 5413 7013 7123
1287 5 4186 5230 5403 5414 5417
1288 6 4186 5379 5403 7012 7016 7124
1289 6 1286 5283 5404 7079 7123 7125
1290 4 3406 4129 5405 5417
1291 7 4129 4146 5405 5416 7082 7083 7084
1292 13 4145 4147 4148 4201 5286 5294 5295 5322 5327 5387 5407 5419 7020
1293 6 4201 5243 5390 5422 7025 7063
1294 3 4174 5391 6973
1295 5 4157 4196 6976 6979 7151
1296 6 3359 4157 5301 5391 6974 6979
1297 4 4159 4197 5401 5426
1298 10 4160 4162 4176 4178 5254 5394 5395 5402 5429 7029
1299 5 4168 5367 5444 5445 7040
1300 2 3944 5372
1301 1 1286
1302 3 1286 5283 5413
1303 1 1371
1304 2 1503 1671
1305 2 1316 1503
1306 1 1316
1307 1 1316
1308 2 1316 1503
1309 2 1316 1503
1310 2 1319 1503
1311 2 1319 1503
1312 2 1319 1503
1313 2 1322 1503
1314 1 1322
1315 5 1322 1323 1459 1519 4500
1316 28 1305 1306 1307 1308 1309 1356 1358 1359 1360 1361 1362 1363 1379 1454 1487 1488 1497 1499 1500 1502 1503 1528 1531 1535 1641 1671 1673 2105
1317 1 1503
1318 1 1503
1319 14 1310 1311 1312 1363 1364 1366 1367 1369 1470 1475 1490 1491 1503 1541
1320 1 1503
1321 2 1369 1503
1322 17 1313 1314 1315 1369 1470 1503 1504 1505 1508 1513 1517 1518 1519 1543 1545 1546 4500
1323 3 1315 1459 1519
1324 5 1334 1414 1415 1425 1430
1325 2 1419 1425
1326 10 1339 1416 1417 1419 1425 1432 1442 1445 1563 1571
1327 2 1345 1436
1328 1 1345
1329 5 1343 1437 1445 1563 1574
1330 3 1346 1347 1438
1331 5 1429 1440 1441 1446 1449
1332 5 1440 1449 1563 1564 1585
1333 3 1441 1449 1551
1334 3 1324 1414 1425
1335 2 1425 1432
1336 2 1425 1432
1337 2 1425 1432
1338 1 1422
1339 5 1326 1418 1432 1433 1445
1340 6 1421 1422 1431 1434 1444 1555
1341 1 1445
1342 7 1416 1420 1422 1425 1431 1442 1563
1343 2 1329 1437
1344 1 1437
1345 6 1327 1328 1436 1437 1438 1563
1346 2 1330 1438
1347 5 1330 1426 1438 1441 28400
1348 1 28400
1349 2 1439 1563
1350 4 1439 1440 1447 1563
1351 6 1355 1658 2026 2051 2141 2146
1352 13 1624 1638 1659 1691 1729 1747 1750 1756 1764 1841 2111 2146 2337
1353 3 1373 1654 1683
1354 9 1373 1387 1622 1623 1655 1656 1683 1686 1702
1355 5 1351 1638 2026 2146 3024
1356 6 1316 1452 1471 1483 1497 1673
1357 1 1472
1358 3 1316 1454 1487
1359 12 1316 1453 1454 1462 1463 1476 1484 1485 1486 1487 1497 1885
1360 6 1316 1454 1498 1499 1885 2254
1361 4 1316 1488 1500 2254
1362 6 1316 1455 1477 1488 1499 2254
1363 21 1316 1319 1456 1457 1464 1465 1466 1467 1473 1478 1479 1480 1489 1490 1494 1495 1500 1501 1503 2248 2254
1364 6 1319 1467 1474 1481 1490 1491
1365 3 1458 1468 2083
1366 5 1319 1475 1482 1491 1496
1367 4 1319 1470 1475 2251
1368 2 1469 2084
1369 5 1319 1321 1322 1470 1503
1370 10 1374 1376 1377 1637 1672 1689 1826 1835 2300 2558
1371 24 1303 1382 1383 1384 1392 1393 1394 1395 1400 1401 1588 1589 1593 1611 1627 1628 1647 1648 1676 1677 1678 1681 1721 4205
1372 1 1651
1373 5 1353 1354 1654 1656 1683
1374 5 1370 1637 1689 1690 2205
1375 4 1380 1672 1688 1689
1376 8 1370 1807 1808 1826 1835 2322 2323 2558
1377 5 1370 1660 1835 2060 2300
1378 5 1666 1692 1705 1765 1812
1379 6 1316 1641 1761 2076 2105 2419
1380 5 1375 1672 1688 1689 2058
1381 2 1650 1680
1382 4 1371 1394 1647 1675
1383 4 1371 1395 1589 1647
1384 5 1371 1589 1593 1611 1612
1385 5 1389 1629 1649 1679 1681
1386 2 3438 3447
1387 6 1354 1635 1655 1683 1701 1702
1388 1 1681
1389 5 1385 1590 1593 1679 1681
1390 1 1681
1391 1 1652
1392 1 1371
1393 1 1371
1394 5 1371 1382 1588 1645 1675
1395 5 1371 1383 1401 1402 1403
1396 2 1608 1642
1397 3 1408 1411 1777
1398 4 1636 1657 1684 1704
1399 2 1411 1719
1400 1 1371
1401 2 1371 1395
1402 1 1395
1403 1 1395
1404 2 1411 1615
1405 2 1411 1615
1406 1 1657
1407 1 1771
1408 2 1397 1777
1409 1 1772
1410 4 1714 1715 1716 1772
1411 11 1397 1399 1404 1405 1615 1694 1719 1722 1775 1776 1777
1412 1 1775
1413 1 1775
1414 7 1324 1334 1425 1430 2164 2218 2244
1415 3 1324 1425 1430
1416 4 1326 1342 1425 1442
1417 2 1326 1425
1418 3 1339 1432 1433
1419 4 1325 1326 1425 1432
1420 3 1342 1442 1563
1421 4 1340 1434 1555 1572
1422 10 1338 1340 1342 1431 1434 1435 1548 1561 1563 1578
1423 3 1427 1556 1580
1424 2 1441 28398
1425 17 1324 1325 1326 1334 1335 1336 1337 1342 1414 1415 1416 1417 1419 1430 1431 1432 2164
1426 5 1347 1438 1441 1563 1576
1427 5 1423 1441 1446 1556 1580
1428 6 1439 1440 1451 1549 1562 1563
1429 3 1331 1440 1448
1430 4 1324 1414 1415 1425
1431 7 1340 1342 1422 1425 1444 1555 2164
1432 8 1326 1335 1336 1337 1339 1418 1419 1425
1433 3 1339 1418 1445
1434 5 1340 1421 1422 1561 1572
1435 3 1422 1563 1578
1436 2 1327 1345
1437 6 1329 1343 1344 1345 1445 1563
1438 7 1330 1345 1346 1347 1426 1563 1575
1439 6 1349 1350 1428 1447 1451 1563
1440 13 1331 1332 1350 1428 1429 1446 1447 1448 1449 1451 1549 1562 1563
1441 15 1331 1333 1347 1424 1426 1427 1446 1449 1551 1565 1576 1580 1586 28398 28400
1442 5 1326 1342 1416 1420 1563
1443 1 1451
1444 3 1340 1431 1555
1445 8 1326 1329 1339 1341 1433 1437 1563 1574
1446 6 1331 1427 1440 1441 1549 1556
1447 4 1350 1439 1440 1451
1448 2 1429 1440
1449 7 1331 1332 1333 1440 1441 1551 1564
1450 3 1586 28398 28402
1451 5 1428 1439 1440 1443 1447
1452 5 1356 1471 1483 1497 1885
1453 4 1359 1462 1476 1885
1454 6 1316 1358 1359 1360 1487 1885
1455 2 1362 2254
1456 3 1363 1494 2248
1457 3 1363 1495 2248
1458 3 1365 1468 2083
1459 6 1315 1323 1519 1520 1848 4500
1460 6 1510 1520 1521 1848 28384 28406
1461 4 1522 1848 28406 28407
1462 4 1359 1453 1476 1885
1463 2 1359 1885
1464 3 1363 2248 2254
1465 4 1363 1473 1478 2248
1466 5 1363 1473 1479 1480 2248
1467 11 1363 1364 1480 1481 1489 1490 2142 2248 2250 2256 2257
1468 4 1365 1458 2083 2249
1469 3 1368 2084 2189
1470 7 1319 1322 1367 1369 2251 4500 28384
1471 6 1356 1452 1483 1673 1805 1885
1472 5 1357 1844 1850 1889 1890
1473 5 1363 1465 1466 1479 2248
1474 5 1364 1475 1481 1491 2257
1475 12 1319 1366 1367 1474 1482 1491 1492 1493 1496 2082 2251 2257
1476 3 1359 1453 1462
1477 2 1362 2254
1478 2 1363 1465
1479 3 1363 1466 1473
1480 4 1363 1466 1467 2248
1481 4 1364 1467 1474 2257
1482 2 1366 1475
1483 3 1356 1452 1471
1484 1 1359
1485 2 1359 1885
1486 1 1359
1487 4 1316 1358 1359 1454
1488 4 1316 1361 1362 2254
1489 2 1363 1467
1490 4 1319 1363 1364 1467
1491 6 1319 1364 1366 1474 1475 2257
1492 1 1475
1493 1 1475
1494 2 1363 1456
1495 2 1363 1457
1496 2 1366 1475
1497 5 1316 1356 1359 1452 1885
1498 3 1360 1885 2254
1499 4 1316 1360 1362 2254
1500 4 1316 1361 1363 2254
1501 2 1363 2254
1502 2 1316 1531
1503 52 1304 1305 1308 1309 1310 1311 1312 1313 1316 1317 1318 1319 1320 1321 1322 1363 1369 1511 1517 1525 1526 1527 1528 1529 1530 1531 1532 1533 1534 1535 1536 1537 1538 1539 1540 1541 1542 1543 1671 1879 1891 1892 1893 1896 1899 1901 1902 1903 1904 1905 1909 1913
1504 3 1322 1517 1544
1505 6 1322 1512 1517 1518 1545 1910
1506 5 1513 1518 1915 1917 1918
1507 2 1513 1918
1508 8 1322 1513 1514 1519 1546 1547 1918 1919
1509 1 1848
1510 2 1460 1848
1511 2 1503 1913
1512 2 1505 1910
1513 7 1322 1506 1507 1508 1518 1547 1918
1514 1 1508
1515 1 28405
1516 2 28396 28406
1517 8 1322 1503 1504 1505 1544 1545 1910 1913
1518 7 1322 1505 1506 1513 1910 1914 1917
1519 8 1315 1322 1323 1459 1508 1848 1919 1920
1520 5 1459 1460 1848 4500 28384
1521 2 1460 1848
1522 4 1461 28395 28406 28407
1523 6 1524 1912 1921 28394 28395 28407
1524 4 1523 28394 28405 28407
1525 1 1503
1526 1 1503
1527 1 1503
1528 2 1316 1503
1529 1 1503
1530 1 1503
1531 3 1316 1502 1503
1532 1 1503
1533 1 1503
1534 1 1503
1535 2 1316 1503
1536 1 1503
1537 1 1503
1538 1 1503
1539 1 1503
1540 1 1503
1541 2 1319 1503
1542 1 1503
1543 2 1322 1503
1544 2 1504 1517
1545 3 1322 1505 1517
1546 2 1322 1508
1547 2 1508 1513
1548 2 1422 1563
1549 7 1428 1440 1446 1556 1562 1563 1581
1550 2 1563 1582
1551 6 1333 1441 1449 1564 1565 1585
1552 5 1557 1586 2465 28401 28402
1553 6 1558 1568 1570 1577 1587 2493
1554 9 1570 1577 1587 2453 28404 28414 28418 28424 28425
1555 16 1340 1421 1431 1444 1559 1560 1572 1579 1852 1855 1867 2164 2244 2460 2475 2476
1556 6 1423 1427 1446 1549 1563 1580
1557 7 1552 1577 2450 2465 2466 2493 28401
1558 4 1553 1568 1570 2493
1559 1 1555
1560 3 1555 1572 1579
1561 7 1422 1434 1572 1573 1578 1579 1582
1562 3 1428 1440 1549
1563 36 1326 1329 1332 1342 1345 1349 1350 1420 1422 1426 1428 1435 1437 1438 1439 1440 1442 1445 1548 1549 1550 1556 1571 1573 1574 1575 1576 1578 1580 1581 1582 1583 1584 1585 1870 2472
1564 4 1332 1449 1551 1585
1565 6 1441 1551 1585 1586 1862 2449
1566 4 1586 2441 2449 2465
1567 1 1577
1568 3 1553 1558 2493
1569 5 1853 2453 2466 2469 2493
1570 6 1553 1554 1558 1587 2453 2493
1571 2 1326 1563
1572 6 1421 1434 1555 1560 1561 1579
1573 4 1561 1563 1578 1582
1574 3 1329 1445 1563
1575 2 1438 1563
1576 4 1426 1441 1563 1580
1577 8 1553 1554 1557 1567 1587 2493 28401 28414
1578 5 1422 1435 1561 1563 1573
1579 4 1555 1560 1561 1572
1580 6 1423 1427 1441 1556 1563 1576
1581 2 1549 1563
1582 6 1550 1561 1563 1573 2461 2472
1583 2 1563 1870
1584 5 1563 1869 1870 2472 2492
1585 11 1332 1551 1563 1564 1565 1859 1860 1870 1871 2449 2492
1586 10 1441 1450 1552 1565 1566 2447 2449 2465 28398 28402
1587 4 1553 1554 1570 1577
1588 4 1371 1394 1645 4205
1589 15 27 102 1371 1383 1384 1593 1610 1611 1612 1647 1649 1677 1678 1721 4206
1590 3 1389 1593 1681
1591 7 1692 1827 1835 1837 1840 1842 2326
1592 2 1647 4206
1593 11 1371 1384 1389 1589 1590 1612 1628 1649 1679 1681 1693
1594 1 1681
1595 4 111 1616 1651 4207
1596 1 1681
1597 1 1681
1598 2 1775 2293
1599 1 1968
1600 2 1651 1685
1601 1 1687
1602 7 1639 1664 1669 1791 2066 2107 2390
1603 2 1730 1787
1604 7 1640 1730 1781 1782 1786 1789 1822
1605 1 1642
1606 2 1642 1718
1607 5 32 91 1642 1643 5745
1608 4 123 1396 1642 1644
1609 4 94 249 1647 1675
1610 2 1589 4206
1611 4 1371 1384 1589 1678
1612 3 1384 1589 1593
1613 2 1626 4207
1614 4 47 109 1650 1680
1615 7 1404 1405 1411 1776 1777 2119 2287
1616 5 1595 1651 2118 4207 4211
1617 4 76 1651 1682 1685
1618 1 1685
1619 3 1651 1685 2197
1620 1 5773
1621 2 1685 2194
1622 2 1354 1655
1623 2 1354 1655
1624 5 1352 1638 2056 2111 3024
1625 4 27 102 1649 4207
1626 4 1613 1649 4207 4210
1627 2 1371 1681
1628 3 1371 1593 1681
1629 7 1385 1649 1681 1965 2118 4207 4211
1630 2 113 1652
1631 3 74 113 1652
1632 4 1726 1775 2316 5767
1633 1 1652
1634 3 74 114 1652
1635 4 1387 1655 1701 1702
1636 2 1398 1657
1637 13 1370 1374 1690 1980 1981 1982 2012 2047 2059 2060 2130 2205 2300
1638 5 1352 1355 1624 2146 3024
1639 7 1602 1664 2018 2065 2066 2092 2417
1640 10 1604 1781 1789 1793 1822 1830 1832 1843 2107 2390
1641 13 1316 1379 1673 1762 1805 2077 2102 2106 2111 2337 2638 2639 2789
1642 13 31 32 91 123 1396 1605 1606 1607 1608 1718 1995 1996 5744
1643 3 217 1607 5745
1644 5 123 124 252 1608 1777
1645 5 93 1394 1588 1675 4205
1646 1 1772
1647 13 34 94 95 96 249 1371 1382 1383 1589 1592 1609 1675 4206
1648 2 1371 1681
1649 10 27 1385 1589 1593 1625 1626 1629 1679 4207 4210
1650 16 44 47 48 51 106 108 109 111 129 131 1381 1614 1680 1998 2282 2312
1651 16 111 112 113 135 151 1372 1595 1600 1616 1617 1619 1682 1685 1699 2118 2197
1652 14 74 113 114 1391 1630 1631 1633 1634 2171 2174 2296 2319 2353 5780
1653 1 5780
1654 3 1353 1373 1683
1655 16 75 117 1354 1387 1622 1623 1635 1683 1686 1700 1701 1702 1703 2003 2007 2295
1656 6 1354 1373 1683 1686 1973 2005
1657 7 1398 1406 1636 1684 1704 1717 2057
1658 8 1351 1816 1825 2050 2051 2097 2139 2141
1659 8 1352 1691 1729 1750 1784 1785 2337 2637
1660 4 1377 1835 2060 2135
1661 8 1821 1835 1838 1842 2013 2091 2135 2710
1662 3 2064 2131 2710
1663 5 2064 2131 2132 2770 2824
1664 6 1602 1639 1669 1828 2018 2064
1665 6 616 1692 1706 1767 2038 2154
1666 11 1378 1705 1765 1766 1812 2037 2154 2236 2240 2271 2646
1667 1 1768
1668 3 1768 1790 2390
1669 16 616 618 619 1602 1664 1692 1706 1707 1708 1768 1790 1791 1828 2239 2240 2390
1670 4 1709 1710 1769 1793
1671 9 1304 1316 1503 1795 1902 2086 2105 2161 2394
1672 7 1370 1375 1380 1674 1688 1689 2558
1673 5 1316 1356 1471 1641 1805
1674 3 1672 1688 2558
1675 7 93 249 1382 1394 1609 1645 1647
1676 1 1371
1677 3 1371 1589 1721
1678 3 1371 1589 1611
1679 5 1385 1389 1593 1649 1693
1680 5 47 130 1381 1614 1650
1681 20 1371 1385 1388 1389 1390 1590 1593 1594 1596 1597 1627 1628 1629 1648 1937 2118 2167 2192 2193 5765
1682 6 76 112 150 1617 1651 2169
1683 17 207 264 1353 1354 1373 1387 1654 1655 1656 1971 1973 2003 2004 2122 2123 4208 5778
1684 4 1398 1657 1704 2057
1685 14 76 78 155 1600 1617 1618 1619 1621 1651 2170 2194 2197 2294 2354
1686 7 1354 1655 1656 1973 2007 2382 5789
1687 3 267 1601 2057
1688 5 1375 1380 1672 1674 2058
1689 16 2 4 19 140 143 499 1370 1374 1375 1380 1672 1979 2010 2058 2179 2205
1690 3 1374 1637 2205
1691 17 1352 1659 1729 1744 1745 1747 1764 1783 1841 2276 2637 2688 2912 2961 3085 3086 3095
1692 13 1378 1591 1665 1669 1705 1706 1707 1767 1812 1827 1828 1835 1838
1693 2 1593 1679
1694 3 1411 1719 1777
1695 2 1719 1777
1696 1 1777
1697 1 1777
1698 1 1777
1699 1 1651
1700 1 1655
1701 3 1387 1635 1655
1702 4 1354 1387 1635 1655
1703 1 1655
1704 3 1398 1657 1684
1705 6 1378 1666 1692 1766 1767 2154
1706 4 616 1665 1669 1692
1707 3 1669 1692 1828
1708 2 1669 1768
1709 2 1670 1793
1710 2 1670 1769
1711 1 1770
1712 1 1794
1713 1 1772
1714 2 1410 1772
1715 2 1410 1772
1716 4 1410 1772 2233 2308
1717 1 1657
1718 2 1606 1642
1719 5 1399 1411 1694 1695 1777
1720 2 2191 2960
1721 3 1371 1589 1677
1722 2 1411 1776
1723 2 1775 5767
1724 2 1775 5767
1725 1 1776
1726 1 1632
1727 4 1732 1733 1833 2145
1728 4 1733 1841 2145 2146
1729 4 1352 1659 1691 1750
1730 7 1603 1604 1779 1782 1787 1822 2107
1731 5 2052 2056 2073 2104 2336
1732 1 1727
1733 3 1727 1728 2145
1734 1 2682
1735 1 2635
1736 1 2682
1737 1 2682
1738 1 2635
1739 3 2681 2911 3163
1740 1 2682
1741 1 3094
1742 1 3094
1743 2 2688 3093
1744 2 1691 3095
1745 2 1691 2688
1746 8 2680 2682 2686 2687 2688 2912 2926 3088
1747 3 1352 1691 1764
1748 3 2687 2938 3014
1749 1 2635
1750 3 1352 1659 1729
1751 2 2635 2964
1752 2 2927 2938
1753 1 2964
1754 1 2927
1755 2 2684 3097
1756 2 1352 2111
1757 2 2305 2684
1758 1 3187
1759 4 2076 2105 2419 2963
1760 2 2418 3187
1761 2 1379 2076
1762 4 1641 2077 2102 3187
1763 1 3094
1764 4 1352 1691 1747 1841
1765 2 1378 1666
1766 3 1666 1705 2154
1767 4 1665 1692 1705 2154
1768 10 619 620 621 1667 1668 1669 1708 1790 2240 2390
1769 3 1670 1710 1792
1770 2 1711 1794
1771 3 1407 1777 2351
1772 12 1409 1410 1646 1713 1714 1715 1716 2233 2281 2308 4216 5750
1773 1 2234
1774 2 1947 1999
1775 21 1411 1412 1413 1598 1632 1723 1724 1776 1777 2002 2121 2235 2293 2313 2316 2380 5767 5769 5771 5773 5777
1776 8 1411 1615 1722 1725 1775 1946 2287 2313
1777 25 124 1397 1408 1411 1615 1644 1694 1695 1696 1697 1698 1719 1771 1775 1964 1997 2115 2116 2119 2235 2285 2311 5746 5749 5762
1778 7 1813 1821 1827 1836 1838 1842 2327
1779 4 1730 1787 1823 2107
1780 2 1787 1823
1781 4 1604 1640 1789 1843
1782 8 1604 1730 1786 1789 1814 1829 1832 1839
1783 2 1691 1841
1784 1 1659
1785 1 1659
1786 3 1604 1782 1829
1787 5 1603 1730 1779 1780 1823
1788 1 1832
1789 7 1604 1640 1781 1782 1830 1832 1843
1790 4 1668 1669 1768 2390
1791 3 1602 1669 2390
1792 1 1769
1793 5 1640 1670 1709 2044 2390
1794 2 1712 1770
1795 1 1671
1796 1 1798
1797 5 1888 2541 2542 2565 2929
1798 7 1796 1799 2612 2695 2847 2871 3617
1799 6 1798 2695 2885 2887 3617 28458
1800 1 2887
1801 3 28430 28433 28435
1802 4 1923 2641 3259 3266
1803 9 1808 1811 1835 2537 2547 2551 2561 2567 2576
1804 2 1986 2958
1805 7 1471 1641 1673 1885 2106 2245 3077
1806 2 2513 2527
1807 2 1376 2558
1808 5 1376 1803 1835 2559 2567
1809 4 2518 2522 2529 2531
1810 2 2388 2518
1811 3 1803 1835 2547
1812 23 1378 1666 1692 1817 1819 1820 1835 2036 2037 2388 2389 2511 2524 2532 2547 2548 2549 2552 2553 2560 2562 2563 2567
1813 2 1778 1838
1814 9 597 606 1782 1824 1832 1839 1849 1988 2301
1815 7 590 598 601 602 604 665 2067
1816 6 1658 1825 2050 2141 2145 2330
1817 2 1812 1835
1818 1 1835
1819 1 1812
1820 1 1812
1821 6 1661 1778 1836 1838 1842 2327
1822 4 1604 1640 1730 2107
1823 5 1779 1780 1787 1839 2107
1824 3 1814 1832 1849
1825 3 1658 1816 2141
1826 4 1370 1376 1835 2323
1827 6 1591 1692 1778 1838 1840 1842
1828 6 1664 1669 1692 1707 1838 2064
1829 2 1782 1786
1830 3 1640 1789 1843
1831 2 1832 1849
1832 8 1640 1782 1788 1789 1814 1824 1831 1849
1833 1 1727
1834 3 2091 2131 2710
1835 19 1370 1376 1377 1591 1660 1661 1692 1803 1808 1811 1812 1817 1818 1826 1842 2135 2324 2325 2547
1836 3 1778 1821 1842
1837 4 1591 1840 1842 2326
1838 9 1661 1692 1778 1813 1821 1827 1828 2064 2710
1839 6 1782 1814 1823 1988 2067 2107
1840 4 1591 1827 1837 1842
1841 6 1352 1691 1728 1764 1783 2146
1842 10 1591 1661 1778 1821 1827 1835 1836 1837 1840 2326
1843 4 1640 1781 1789 1830
1844 8 1472 1850 1890 2594 2797 2798 2826 2827
1845 4 591 1992 2052 2056
1846 2 2947 3080
1847 3 2890 3326 28407
1848 23 1459 1460 1461 1509 1510 1519 1520 1521 1884 1908 1920 1930 1931 2891 2948 2949 2968 2969 3081 3224 3326 28406 28407
1849 5 1814 1824 1831 1832 2301
1850 7 1472 1844 1889 2714 2796 2826 2884
1851 13 1855 1867 1868 1922 1923 2243 2244 2443 2445 2491 3122 3370 3422
1852 8 1555 1855 1856 1923 2445 2460 2476 2852
1853 4 1569 2466 2469 3349
1854 5 1863 2454 2470 3055 3236
1855 7 1555 1851 1852 1867 2443 2445 2491
1856 5 1852 2460 2481 2852 3327
1857 4 2461 2462 2471 2472
1858 5 1869 2462 2471 3328 3337
1859 3 1585 1870 2492
1860 4 1585 1871 2473 2492
1861 6 1871 2464 2473 2492 3237 3344
1862 2 1565 2449
1863 4 1854 2454 2470 2480
1864 8 2367 2470 2494 3245 3247 3253 3340 3342
1865 2 1881 1917
1866 6 1902 2162 2394 2945 2954 3285
1867 5 1555 1851 1855 2244 2443
1868 2 1851 2443
1869 7 1584 1858 2462 2472 2492 3333 3337
1870 6 1563 1583 1584 1585 1859 2492
1871 8 1585 1860 1861 2449 2463 2473 2864 3237
1872 5 2212 2449 2463 2464 2864
1873 1 2449
1874 4 2213 2449 2464 3332
1875 2 2449 2459
1876 2 2945 2954
1877 4 1886 1901 3079 3111
1878 5 2945 3079 3104 3111 3112
1879 7 1503 1886 1909 1910 1913 1927 1929
1880 1 1917
1881 6 1865 1887 1914 1917 1928 1929
1882 4 1915 1917 1918 3080
1883 2 1918 3080
1884 3 1848 1920 3081
1885 19 1359 1360 1452 1453 1454 1462 1463 1471 1485 1497 1498 1805 2219 2245 2246 2252 2254 2267 3078
1886 5 1877 1879 1901 1909 3079
1887 3 1881 1917 3080
1888 3 1797 2542 2565
1889 7 1472 1850 1890 2542 2565 2592 2884
1890 8 1472 1844 1889 2582 2592 2594 2595 3106
1891 7 1503 1895 1896 1897 1898 1903 2945
1892 5 1503 1899 1900 1904 2945
1893 4 1503 1896 1902 2945
1894 4 1896 1924 1926 2945
1895 4 1891 1896 1926 2945
1896 9 1503 1891 1893 1894 1895 1924 1925 1926 2945
1897 2 1891 2945
1898 2 1891 2945
1899 4 1503 1892 1903 2945
1900 3 1892 1904 2945
1901 7 1503 1877 1886 1905 1909 2945 3111
1902 6 1503 1671 1866 1893 2394 2945
1903 4 1503 1891 1899 2945
1904 4 1503 1892 1900 2945
1905 3 1503 1901 2945
1906 2 1910 1913
1907 1 1918
1908 1 1848
1909 4 1503 1879 1886 1901
1910 9 1505 1512 1517 1518 1879 1906 1913 1914 1929
1911 1 1918
1912 2 1523 28407
1913 6 1503 1511 1517 1879 1906 1910
1914 5 1518 1881 1910 1917 1929
1915 4 1506 1882 1917 1918
1916 1 28415
1917 10 1506 1518 1865 1880 1881 1882 1887 1914 1915 3080
1918 10 1506 1507 1508 1513 1882 1883 1907 1911 1915 3080
1919 2 1508 1519
1920 3 1519 1848 1884
1921 2 1523 28407
1922 4 1851 1923 3301 3422
1923 9 1802 1851 1852 1922 2445 2852 3259 3266 3301
1924 3 1894 1896 2945
1925 1 1896
1926 4 1894 1895 1896 2945
1927 1 1879
1928 1 1881
1929 4 1879 1881 1910 1914
1930 1 1848
1931 2 1848 2891
1932 1 2192
1933 1 2192
1934 1 2192
1935 2 2166 2192
1936 1 2192
1937 2 1681 2118
1938 8 1944 1945 1947 1999 2001 2410 2412 5764
1939 2 2119 2288
1940 3 2120 2316 5771
1941 7 276 486 2123 2381 2914 4208 5778
1942 2 2197 2632
1943 2 2313 5767
1944 5 1938 1999 2409 2410 5764
1945 4 1938 2410 2411 2412
1946 4 1776 2119 2287 2313
1947 5 1774 1938 1999 2001 2117
1948 1 2119
1949 3 2119 2313 5767
1950 2 2119 2499
1951 1 2197
1952 2 2315 5771
1953 2 2120 5771
1954 2 2123 5781
1955 5 2123 2807 2895 5782 5783
1956 3 1972 2006 2808
1957 2 267 5786
1958 2 267 5786
1959 2 267 5786
1960 3 1989 2021 2275
1961 3 1989 1991 2068
1962 3 1990 2022 2108
1963 3 1990 1991 2108
1964 3 1777 2115 5749
1965 3 1629 2118 4211
1966 1 2118
1967 3 2118 2167 2617
1968 4 1599 2001 2415 5773
1969 2 2121 5771
1970 3 2122 2750 2913
1971 2 1683 2123
1972 5 1956 2006 2753 2808 2810
1973 12 1656 1683 1686 2005 2006 2123 2124 2753 2813 5783 5784 5789
1974 2 2382 5789
1975 2 2813 5789
1976 1 5789
1977 4 61 62 261 5789
1978 3 344 499 2058
1979 3 140 1689 2179
1980 3 1637 2059 2130
1981 2 1637 2060
1982 2 1637 2047
1983 2 2060 2090
1984 3 2060 2090 2135
1985 1 2091
1986 4 1804 2785 2958 3008
1987 4 2019 2067 2107 2328
1988 3 1814 1839 2067
1989 2 1960 1961
1990 3 1962 1963 2108
1991 6 1961 1963 2068 2070 2094 2108
1992 6 591 593 1845 2026 2051 2056
1993 7 305 310 591 2028 2052 2100 2137
1994 3 2030 2078 2113
1995 2 1642 5744
1996 2 32 1642
1997 10 24 25 26 63 124 252 263 1777 5746 5749
1998 3 44 108 1650
1999 10 1774 1938 1944 1947 2234 2369 2408 2409 4226 5764
2000 2 2118 2689
2001 6 1938 1947 1968 2412 2413 2415
2002 5 1775 2235 2375 2380 2416
2003 9 117 206 214 215 257 264 1655 1683 2379
2004 6 1683 2122 2750 2893 2914 5778
2005 2 1656 1973
2006 7 1956 1972 1973 2753 2808 2810 5783
2007 7 61 120 199 1655 1686 2295 5789
2008 2 2813 5789
2009 5 338 500 2128 2620 5789
2010 5 17 122 140 499 1689
2011 2 2060 2090
2012 9 1637 2047 2060 2089 2129 2130 2768 2830 3353
2013 5 1661 2048 2061 2091 2135
2014 1 2091
2015 1 2091
2016 2 2091 2131
2017 2 2064 2132
2018 6 1639 1664 2064 2065 2132 2824
2019 4 1987 2066 2107 2328
2020 4 2092 2417 2749 2771
2021 4 600 606 1960 2275
2022 4 600 1962 2049 2108
2023 2 2070 2094
2024 3 2050 2095 2139
2025 17 706 722 723 724 740 741 2069 2098 2112 2564 2722 2738 2739 2748 2787 2788 3462
2026 5 1351 1355 1992 2056 3024
2027 2 2052 2073
2028 4 310 1993 2100 2906
2029 4 645 2078 2100 2101
2030 5 1994 2078 2100 2113 2137
2031 3 2054 2793 3199
2032 1 2083
2033 4 2084 2133 2189 2350
2034 2 2084 2133
2035 1 2084
2036 7 615 1812 2153 2388 2389 2731 2874
2037 7 615 1666 1812 2236 2389 2646 3272
2038 4 616 1665 2154 2271
2039 3 616 2239 2271
2040 12 400 401 615 622 2158 2237 2238 2241 2270 2647 3058 3271
2041 3 622 2158 2241
2042 3 622 2158 2390
2043 4 625 626 2649 2732
2044 2 1793 2390
2045 7 632 2159 2652 2878 3225 4304 6451
2046 1 627
2047 4 1637 1982 2012 2130
2048 5 2013 2061 2090 2091 3439
2049 5 600 603 2022 2070 2108
2050 4 1658 1816 2024 2139
2051 9 593 613 664 1351 1658 1992 2097 2109 2139
2052 12 591 1731 1845 1993 2027 2056 2073 2113 2137 2140 2336 2804
2053 5 685 2165 2539 2905 2939
2054 7 2031 2079 2106 2728 2793 3199 3211
2055 11 655 687 2098 2165 2541 2564 2744 2795 2929 2939 2940
2056 10 1624 1731 1845 1992 2026 2052 2073 2104 2111 3024
2057 20 81 82 83 84 118 157 194 232 233 267 1657 1684 1687 2125 2126 2127 2266 2268 2297 2816
2058 10 497 499 1380 1688 1689 1978 2127 2263 2269 2627
2059 8 1637 1980 2130 2182 2185 2205 2364 2767
2060 14 1377 1637 1660 1981 1983 1984 2011 2012 2089 2090 2129 2135 2300 3353
2061 4 2013 2048 2090 2135
2062 1 2131
2063 3 2131 2719 2720
2064 10 1662 1663 1664 1828 1838 2017 2018 2131 2132 2710
2065 7 1639 2018 2092 2824 2825 2902 2923
2066 6 1602 1639 2019 2107 2328 2417
2067 13 589 592 595 601 1815 1839 1987 1988 2093 2107 2328 2329 2417
2068 3 1961 1991 2094
2069 4 2025 2112 2722 2737
2070 9 603 653 1991 2023 2049 2094 2096 2108 2139
2071 1 2304
2072 8 2277 2302 2303 2637 2776 2927 2938 2961
2073 4 1731 2027 2052 2056
2074 3 2111 2136 2331
2075 8 2104 2110 2113 2140 2741 2804 3205 3210
2076 4 1379 1759 1761 2419
2077 2 1641 1762
2078 11 637 645 651 1994 2029 2030 2100 2101 2103 2113 3379
2079 5 2054 2726 2727 2728 3211
2080 5 2215 2216 2253 2953 3193
2081 3 2253 2953 3491
2082 3 1475 2251 2257
2083 22 1365 1458 1468 2032 2087 2210 2224 2249 2250 2257 2333 2334 2347 2348 2349 2585 2601 2930 2941 3196 3491 3608
2084 13 1368 1469 2033 2034 2035 2088 2133 2147 2189 2226 2335 2350 3608
2085 7 2134 2229 2251 2258 2261 2602 3620
2086 5 1671 2105 2161 2676 3025
2087 4 2083 2251 2257 3608
2088 5 2084 2147 2189 2251 3608
2089 3 2012 2060 3353
2090 9 1983 1984 2011 2048 2060 2061 2135 3353 3439
2091 14 1661 1834 1985 2013 2014 2015 2016 2048 2131 2138 2710 2734 2781 3439
2092 6 1639 2020 2065 2417 2771 2825
2093 11 350 369 587 595 638 2067 2329 2417 2749 2772 2786
2094 4 1991 2023 2068 2070
2095 2 2024 2139
2096 3 653 2070 2139
2097 2 1658 2051
2098 7 685 2025 2055 2165 2539 2564 2739
2099 1 2637
2100 11 310 637 645 669 1993 2028 2029 2030 2078 2137 2906
2101 3 645 2029 2078
2102 8 1641 1762 2304 2305 2636 2638 3089 3187
2103 4 2078 2113 3379 3401
2104 11 1731 2056 2075 2111 2136 2331 2336 2789 3205 3208 3210
2105 10 1316 1379 1671 1759 2086 2419 2963 2964 3025 3204
2106 12 693 1641 1805 2054 2729 2745 2789 2951 3077 3199 3211 3212
2107 12 1602 1640 1730 1779 1822 1823 1839 1987 2019 2066 2067 2390
2108 7 1962 1963 1990 1991 2022 2049 2070
2109 5 653 664 672 2051 2139
2110 3 2075 2113 2140
2111 12 1352 1624 1641 1756 2056 2074 2104 2136 2331 2337 2639 2789
2112 7 2025 2069 2564 2722 2962 3015 3594
2113 13 1994 2030 2052 2075 2078 2103 2110 2137 2140 2740 2741 3401 3404
2114 8 2280 2306 2308 4229 4230 4231 5747 5750
2115 16 65 99 103 201 209 263 481 1777 1964 2283 2310 5749 5759 5760 5761 5762
2116 6 1777 2285 2309 2311 3423 5762
2117 1 1947
2118 17 1616 1629 1651 1681 1937 1965 1966 1967 2000 2167 2197 2500 2617 2689 3082 3470 4211
2119 27 56 59 75 117 205 226 1615 1777 1939 1946 1948 1949 1950 2285 2286 2287 2288 2289 2290 2291 2292 2313 2314 2316 2496 2499 5767
2120 8 190 191 199 265 1940 1953 2316 5771
2121 6 77 1775 1969 2318 5771 5777
2122 12 207 439 440 484 513 1683 1970 2004 2750 2893 2913 5770
2123 13 276 1683 1941 1954 1955 1971 1973 2381 2806 4208 5781 5782 5783
2124 3 1973 2813 5789
2125 2 2057 2266
2126 3 83 2057 2297
2127 5 2057 2058 2268 2627 2816
2128 4 500 2009 2355 5789
2129 2 2012 2060
2130 8 1637 1980 2012 2047 2059 2767 2781 2830
2131 16 1662 1663 1834 2016 2062 2063 2064 2091 2138 2710 2719 2720 2770 2781 2782 3006
2132 5 1663 2017 2018 2064 2824
2133 8 2033 2034 2084 2150 2152 2189 2190 2350
2134 2 2085 2261
2135 8 1660 1661 1835 1984 2013 2060 2061 2090
2136 5 2074 2104 2111 2331 2789
2137 5 1993 2030 2052 2100 2113
2138 2 2091 2131
2139 9 653 1658 2024 2050 2051 2070 2095 2096 2109
2140 5 2052 2075 2110 2113 2804
2141 6 1351 1658 1816 1825 2146 2330
2142 4 1467 2248 2256 2279
2143 4 2148 2188 2189 2251
2144 1 2190
2145 6 1727 1728 1733 1816 2146 2330
2146 9 1351 1352 1355 1638 1728 1841 2141 2145 2330
2147 3 2084 2088 2189
2148 7 2143 2149 2150 2151 2188 2189 2190
2149 4 2148 2188 2190 2251
2150 4 2133 2148 2189 2190
2151 2 2148 2190
2152 2 2133 2190
2153 3 2036 2731 2874
2154 8 616 1665 1666 1705 1766 1767 2038 2271
2155 1 2650
2156 3 618 2239 2271
2157 4 617 2240 2390 2646
2158 8 622 625 2040 2041 2042 2241 2390 2647
2159 14 628 632 634 2045 2242 2652 2659 2661 2875 2877 2879 3063 3118 4304
2160 3 2191 2662 2682
2161 12 1671 2086 2391 2392 2393 2394 2664 2676 2881 2954 3025 3359
2162 6 1866 2394 2666 2881 2954 3285
2163 2 2395 2396
2164 5 1414 1425 1431 1555 2244
2165 5 2053 2055 2098 2539 2939
2166 2 1935 2192
2167 11 315 316 1681 1967 2118 2192 2193 2338 2617 2690 5765
2168 7 2192 2614 2618 2690 2834 2857 2989
2169 5 76 112 150 1682 2194
2170 2 1685 2197
2171 5 114 151 1652 2194 2353
2172 3 2197 2625 2860
2173 4 2194 2197 2354 2814
2174 13 1652 2194 2195 2296 2319 2341 2353 2498 2754 2760 2814 3383 5780
2175 2 2197 2357
2176 4 2195 2344 2359 2760
2177 4 2197 2360 2756 3433
2178 17 2342 2343 2345 2355 2356 2358 2384 2385 2624 2755 2759 2761 2813 2815 2819 3434 5789
2179 26 4 7 10 13 18 139 140 141 143 499 1689 1979 2198 2199 2200 2201 2203 2435 2436 2437 2628 2629 2630 2821 3040 3165
2180 7 15 20 139 143 2205 2361 2363
2181 4 328 2205 2365 2694
2182 3 2059 2205 2364
2183 4 2365 2631 2823 3168
2184 4 2204 2205 2365 2767
2185 2 2059 2205
2186 6 2187 2207 2640 3625 3635 3649
2187 6 2186 2207 2633 2640 2774 3396
2188 4 2143 2148 2149 2251
2189 10 1469 2033 2084 2088 2133 2143 2147 2148 2150 2251
2190 11 2133 2144 2148 2149 2150 2151 2152 2206 2251 2260 2261
2191 4 1720 2160 2682 2960
2192 11 1681 1932 1933 1934 1935 1936 2166 2167 2168 2690 5765
2193 2 1681 2167
2194 17 76 78 112 151 152 153 155 1621 1685 2169 2171 2173 2174 2294 2353 2354 2814
2195 5 2174 2176 2754 2760 2915
2196 1 2626
2197 26 1619 1651 1685 1942 1951 2118 2170 2172 2173 2175 2177 2339 2354 2357 2360 2500 2623 2625 2626 2632 2756 2814 2860 2977 3082 3471
2198 3 2179 2628 2821
2199 1 2179
2200 2 7 2179
2201 4 7 18 143 2179
2202 4 5 19 142 143
2203 8 10 12 13 139 408 479 2179 2436
2204 2 2184 2365
2205 26 3 6 8 11 20 21 139 143 328 1374 1637 1689 1690 2059 2180 2181 2182 2184 2185 2346 2361 2362 2363 2364 2365 2767
2206 3 2190 2251 2260
2207 5 2186 2187 2774 3635 3638
2208 1 2494
2209 2 2248 2254
2210 3 2083 2250 2257
2211 1 2251
2212 2 1872 2449
2213 6 1874 2464 3200 3238 3332 3345
2214 3 2227 2251 2259
2215 3 2080 2953 3193
2216 4 2080 2253 2267 3193
2217 4 2253 3194 3490 3491
2218 3 1414 2244 2397
2219 4 1885 2252 3056 3078
2220 10 4599 4600 4712 4771 4778 6274 6275 6276 6330 6332
2221 3 2597 2798 2829
2222 4 2599 2800 3510 3524
2223 7 2578 2599 3110 3506 3511 3536 3540
2224 15 2083 2334 2583 2584 2589 2598 2600 2601 2606 2941 3352 3397 3466 4725 4726
2225 8 1157 4515 4526 4638 4819 4821 4896 4897
2226 10 1157 2084 2586 3397 3608 3611 3612 3614 3615 4526
2227 6 586 2214 2251 2259 2587 2602
2228 4 578 580 2602 3620
2229 4 2085 2603 3618 3620
2230 12 1184 1185 1186 1199 1201 1202 1203 1204 4832 4834 6354 28393
2231 2 2603 3620
2232 4 2408 4215 4217 5758
2233 7 1716 1772 2308 2406 4216 4218 4219
2234 8 1773 1999 2369 2408 2409 4220 4222 4223
2235 16 1775 1777 2002 2368 2370 2371 2372 2373 2375 2407 2416 4219 4221 4224 4225 4231
2236 3 1666 2037 2646
2237 6 614 615 622 2040 2646 3272
2238 1 2040
2239 6 616 618 1669 2039 2156 2271
2240 13 618 619 620 621 623 1666 1669 1768 2157 2271 2272 2390 2646
2241 4 622 2040 2041 2158
2242 3 628 2159 2659
2243 2 1851 3370
2244 9 1414 1555 1851 1867 2164 2218 2397 3120 3122
2245 5 1805 1885 2252 3056 3077
2246 3 1885 2267 3078
2247 3 2256 2274 2279
2248 18 1363 1456 1457 1464 1465 1466 1467 1473 1480 2142 2209 2254 2255 2274 2278 2279 3195 3490
2249 8 1468 2083 2332 2333 2386 2387 3489 3491
2250 7 1467 2083 2210 2256 2257 2333 2387
2251 25 586 1367 1470 1475 2082 2085 2087 2088 2143 2149 2188 2189 2190 2206 2211 2214 2227 2257 2258 2259 2260 2261 2602 3608 28384
2252 4 1885 2219 2245 3056
2253 8 2080 2081 2216 2217 2267 2953 3490 3491
2254 17 1360 1361 1362 1363 1455 1464 1477 1488 1498 1499 1500 1501 1885 2209 2248 2267 3490
2255 4 2248 2278 3125 3490
2256 11 1467 2142 2247 2250 2274 2278 2279 2386 2387 3125 3490
2257 11 1467 1474 1475 1481 1491 2082 2083 2087 2210 2250 2251
2258 3 2085 2251 2261
2259 4 586 2214 2227 2251
2260 3 2190 2206 2251
2261 5 2085 2134 2190 2251 2258
2262 4 85 2265 2758 3051
2263 2 2058 2627
2264 4 84 86 157 2818
2265 11 84 85 156 267 419 2262 2298 2757 2758 3051 3427
2266 7 83 157 2057 2125 2816 2818 2916
2267 10 1885 2216 2246 2253 2254 2953 3078 3124 3193 3490
2268 3 2057 2127 2816
2269 2 2058 2627
2270 5 399 615 2040 3058 3271
2271 9 616 618 1666 2038 2039 2154 2156 2239 2240
2272 3 623 2240 2390
2273 1 2655
2274 5 2247 2248 2256 2278 2279
2275 4 606 1960 2021 2301
2276 1 1691
2277 2 2072 2938
2278 6 2248 2255 2256 2274 3125 3195
2279 5 2142 2247 2248 2256 2274
2280 1 2114
2281 6 1772 2398 2399 4213 4216 5752
2282 2 1650 2312
2283 1 2115
2284 1 2321
2285 8 1777 2116 2119 2309 2311 2496 3382 3423
2286 1 2119
2287 5 1615 1776 1946 2119 2314
2288 3 1939 2119 2496
2289 1 2119
2290 3 2119 2316 5767
2291 1 2119
2292 4 59 75 2119 2316
2293 6 1598 1775 2315 2414 5769 5771
2294 2 1685 2194
2295 4 75 199 1655 2007
2296 4 1652 2174 2319 5780
2297 3 83 2057 2126
2298 3 267 2265 5786
2299 4 267 341 5788 5795
2300 4 1370 1377 1637 2060
2301 5 597 606 1814 1849 2275
2302 4 2072 2637 2961 3086
2303 2 2072 2637
2304 4 2071 2102 2636 3089
2305 5 1757 2102 2684 3089 3187
2306 1 2114
2307 1 108
2308 7 1716 1772 2114 2233 4219 4231 5750
2309 2 2116 2285
2310 4 481 2115 3423 5762
2311 3 1777 2116 2285
2312 12 49 68 108 110 111 203 208 210 263 1650 2282 2321
2313 7 1775 1776 1943 1946 1949 2119 5767
2314 3 56 2119 2287
2315 5 1952 2293 2377 2414 5771
2316 20 57 75 199 265 1632 1775 1940 2119 2120 2290 2292 2374 2376 2377 2378 2414 5767 5768 5769 5771
2317 9 58 72 79 113 134 213 263 489 2498
2318 6 77 196 197 265 2121 5771
2319 6 79 113 1652 2174 2296 2498
2320 1 267
2321 9 49 110 203 204 208 210 263 2284 2312
2322 1 1376
2323 2 1376 1826
2324 1 1835
2325 1 1835
2326 3 1591 1837 1842
2327 2 1778 1821
2328 5 1987 2019 2066 2067 2417
2329 3 2067 2093 2417
2330 4 1816 2141 2145 2146
2331 4 2074 2104 2111 2136
2332 2 2249 2387
2333 3 2083 2249 2250
2334 2 2083 2224
2335 1 2084
2336 5 1731 2052 2104 2804 3205
2337 6 1352 1641 1659 2111 2637 2639
2338 4 2167 2352 2617 2690
2339 1 2197
2340 1 2617
2341 1 2174
2342 2 2178 2815
2343 3 2178 2358 2815
2344 1 2176
2345 3 2178 2759 2819
2346 1 2205
2347 1 2083
2348 1 2083
2349 1 2083
2350 3 2033 2084 2133
2351 2 1771 4228
2352 2 2338 2690
2353 4 1652 2171 2174 2194
2354 4 1685 2173 2194 2197
2355 5 500 2128 2178 2624 5789
2356 3 2178 2755 2815
2357 3 2175 2197 2626
2358 4 2178 2343 2384 2385
2359 2 2176 2760
2360 4 2177 2197 2632 3433
2361 2 2180 2205
2362 1 2205
2363 2 2180 2205
2364 3 2059 2182 2205
2365 9 2181 2183 2184 2204 2205 2631 2694 2767 2823
2366 2 2452 2470
2367 9 1864 2452 2458 2470 2843 2867 2869 3242 3253
2368 2 2235 2416
2369 4 1999 2234 2409 4222
2370 2 2235 2416
2371 2 2235 2416
2372 2 2235 2416
2373 2 2235 2416
2374 3 2316 2414 5768
2375 3 2002 2235 2416
2376 3 2316 2414 5768
2377 4 2315 2316 2414 5771
2378 2 2316 5771
2379 5 206 215 227 257 2003
2380 4 1775 2002 2416 5773
2381 4 276 1941 2123 5781
2382 3 1686 1974 5789
2383 3 84 267 5785
2384 2 2178 2358
2385 2 2178 2358
2386 7 2249 2256 2387 3194 3489 3490 3491
2387 5 2249 2250 2256 2332 2386
2388 7 631 1810 1812 2036 2518 2650 2874
2389 4 615 1812 2036 2037
2390 21 617 622 623 624 625 1602 1640 1668 1669 1768 1790 1791 1793 2042 2044 2107 2157 2158 2240 2272 2646
2391 1 2161
2392 1 2161
2393 1 2161
2394 7 1671 1866 1902 2161 2162 2881 3285
2395 1 2163
2396 1 2163
2397 4 2218 2244 3028 3120
2398 3 2281 4213 5752
2399 4 2281 4216 5752 5754
2400 1 5754
2401 3 4214 5753 5755
2402 2 4216 5754
2403 2 4217 5755
2404 1 4216
2405 2 4216 5757
2406 5 2233 4216 4218 4219 5757
2407 4 2235 4221 4224 4225
2408 11 1999 2232 2234 4215 4217 4220 4223 4226 4227 5756 5758
2409 5 1944 1999 2234 2369 4222
2410 3 1938 1944 1945
2411 1 1945
2412 3 1938 1945 2001
2413 1 2001
2414 7 2293 2315 2316 2374 2376 2377 5769
2415 3 1968 2001 5773
2416 10 2002 2235 2368 2370 2371 2372 2373 2375 2380 5773
2417 9 1639 2020 2066 2067 2092 2093 2328 2329 2749
2418 2 1760 3187
2419 4 1379 1759 2076 2105
2420 1 2440
2421 8 2426 2429 2433 2437 2438 2440 3164 3390
2422 4 2430 2438 2439 3164
2423 1 2440
2424 4 2435 3136 3156 3165
2425 4 2431 2435 2439 3126
2426 4 2421 2437 2821 3390
2427 1 2437
2428 1 2437
2429 4 2421 2440 3164 3390
2430 6 2422 2433 2435 2437 2438 2439
2431 4 2425 2439 3126 3164
2432 2 2437 2821
2433 4 2421 2430 2437 2438
2434 2 2437 2763
2435 11 2179 2424 2425 2430 2437 2439 2765 3126 3136 3156 3165
2436 10 349 408 409 478 479 2179 2203 2630 3138 3167
2437 13 2179 2421 2426 2427 2428 2430 2432 2433 2434 2435 2763 2821 3135
2438 5 2421 2422 2430 2433 3164
2439 6 2422 2425 2430 2431 2435 3164
2440 5 2420 2421 2423 2429 3164
2441 4 1566 2449 2450 2465
2442 6 2453 2467 2469 2483 2494 2508
2443 5 1851 1855 1867 1868 2491
2444 2 2484 3339
2445 4 1851 1852 1855 1923
2446 2 2464 2864
2447 2 1586 2465
2448 3 2479 2494 28420
2449 16 1565 1566 1585 1586 1862 1871 1872 1873 1874 1875 2212 2441 2459 2463 2464 3332
2450 6 1557 2441 2459 2465 2466 3349
2451 2 2484 3339
2452 5 2366 2367 2470 2867 3054
2453 12 1554 1569 1570 2442 2467 2469 2483 2493 2508 5474 28418 28425
2454 11 1854 1863 2468 2469 2480 2484 2485 2486 2487 2494 3236
2455 2 2494 28420
2456 2 2470 3055
2457 2 2470 3055
2458 5 2367 2843 2868 2869 3246
2459 5 1875 2449 2450 3332 3349
2460 6 1555 1852 1856 2475 2476 2477
2461 6 1582 1857 2471 2472 2478 2482
2462 5 1857 1858 1869 2471 2472
2463 4 1871 1872 2449 2864
2464 9 1861 1872 1874 2213 2446 2449 2864 3237 3344
2465 7 1552 1557 1566 1586 2441 2447 2450
2466 7 1557 1569 1853 2450 2474 2493 3349
2467 3 2442 2453 2483
2468 5 2454 2484 2485 3236 3339
2469 11 1569 1853 2442 2453 2454 2484 2486 2494 2716 3339 3349
2470 14 1854 1863 1864 2366 2367 2452 2456 2457 2480 2488 2494 2707 3054 3055
2471 6 1857 1858 2461 2462 2482 3328
2472 8 1563 1582 1584 1857 1869 2461 2462 2492
2473 4 1860 1861 1871 2492
2474 2 2466 3349
2475 2 1555 2460
2476 3 1555 1852 2460
2477 1 2460
2478 1 2461
2479 2 2448 2494
2480 6 1863 2454 2470 2487 2488 2494
2481 2 1856 3327
2482 3 2461 2471 3328
2483 4 2442 2453 2467 2508
2484 6 2444 2451 2454 2468 2469 3339
2485 3 2454 2468 3236
2486 3 2454 2469 2494
2487 3 2454 2480 2494
2488 2 2470 2480
2489 2 3248 28420
2490 3 3248 28419 28420
2491 3 1851 1855 2443
2492 11 1584 1585 1859 1860 1861 1869 1870 2472 2473 3333 3344
2493 9 1553 1557 1558 1568 1569 1570 1577 2453 2466
2494 16 1864 2208 2442 2448 2454 2455 2469 2470 2479 2480 2486 2487 2508 2510 3245 28420
2495 4 256 263 489 501
2496 6 481 2119 2285 2288 2499 3382
2497 2 213 489
2498 7 79 444 489 2174 2317 2319 3383
2499 9 211 226 243 264 460 481 1950 2119 2496
2500 2 2118 2197
2501 5 5476 28417 28420 28422 28488
2502 1 28486
2503 1 28486
2504 1 28486
2505 1 5476
2506 1 28486
2507 1 28486
2508 6 2442 2453 2483 2494 2510 5474
2509 2 5474 28425
2510 5 2494 2508 5474 28420 28488
2511 4 1812 2515 2567 3641
2512 5 2514 2520 2523 2525 2536
2513 5 1806 2527 2544 2546 3639
2514 3 2512 2526 2536
2515 6 2511 2567 3589 3640 3641 3674
2516 9 2674 2779 3110 3629 3676 3677 6700 28428 28458
2517 2 2530 2550
2518 8 1809 1810 2388 2522 2529 2530 2531 2550
2519 1 3640
2520 9 2512 2523 2525 2535 2536 2543 2545 3640 3670
2521 2 2523 3640
2522 5 1809 2518 2529 2531 2550
2523 4 2512 2520 2521 3640
2524 3 1812 2553 2567
2525 4 2512 2520 2536 2543
2526 3 2514 2527 2536
2527 7 1806 2513 2526 2536 2544 2546 3185
2528 1 2550
2529 4 1809 2518 2522 2550
2530 3 2517 2518 2550
2531 3 1809 2518 2522
2532 2 1812 2567
2533 4 2544 3185 3639 3671
2534 2 2544 3185
2535 4 2520 2545 3185 3670
2536 11 2512 2514 2520 2525 2526 2527 2543 2545 3185 3570 3673
2537 3 1803 2561 2567
2538 7 303 304 650 685 2803 2905 2939
2539 4 685 2053 2098 2165
2540 3 2567 2575 3674
2541 6 1797 2055 2565 2795 2929 3604
2542 8 655 657 1797 1888 1889 2565 2884 2929
2543 3 2520 2525 2536
2544 6 2513 2527 2533 2534 3185 3639
2545 5 2520 2535 2536 3185 3673
2546 2 2513 2527
2547 6 1803 1811 1812 1835 2562 2576
2548 5 1812 2555 2562 2563 2576
2549 4 1812 2552 2563 2567
2550 6 2517 2518 2522 2528 2529 2530
2551 2 1803 2567
2552 3 1812 2549 2567
2553 3 1812 2524 2567
2554 3 2561 2567 2576
2555 3 2548 2562 2576
2556 4 3634 3640 3671 3672
2557 4 3571 3589 3640 3672
2558 7 1370 1376 1672 1674 1807 2571 2572
2559 5 1808 2567 2573 2574 3674
2560 1 1812
2561 5 1803 2537 2554 2567 2576
2562 5 1812 2547 2548 2555 2576
2563 5 1812 2548 2549 2567 2576
2564 10 2025 2055 2098 2112 2744 3015 3190 3594 3636 3637
2565 19 1797 1888 1889 2541 2542 2568 2569 2570 2592 2669 2670 2671 2672 2777 3604 3633 3656 3658 3681
2566 4 2673 2777 3682 3684
2567 21 1803 1808 1812 2511 2515 2524 2532 2537 2540 2549 2551 2552 2553 2554 2559 2561 2563 2575 2576 3674 3876
2568 1 2565
2569 1 2565
2570 1 2565
2571 1 2558
2572 1 2558
2573 1 2559
2574 2 2559 3674
2575 2 2540 2567
2576 9 1803 2547 2548 2554 2555 2561 2562 2563 2567
2577 5 2580 2582 2592 2777 3091
2578 4 2223 2599 3540 4320
2579 1 2592
2580 4 2577 2777 3091 3552
2581 4 2593 2597 2828 3545
2582 6 1890 2577 2592 2595 3091 3552
2583 4 2224 2598 3464 3605
2584 3 2224 2589 3606
2585 5 2083 2601 3397 3608 3609
2586 3 2226 3611 4526
2587 4 580 586 2227 2602
2588 4 2612 3529 3617 3619
2589 7 2224 2584 2606 3465 3606 3607 4726
2590 1 4281
2591 3 2882 4280 4281
2592 7 1889 1890 2565 2577 2579 2582 2777
2593 5 2581 2798 2828 3545 3550
2594 8 1844 1890 2798 3090 3099 3106 3482 3504
2595 4 1890 2582 3106 3552
2596 4 2777 3100 3107 3552
2597 12 2221 2581 2798 2799 2828 2829 3101 3108 3545 3547 3549 4316
2598 4 2224 2583 2941 3464
2599 13 2222 2223 2578 2605 2607 2800 3110 3524 3533 3540 3548 4319 4320
2600 2 2224 4726
2601 5 2083 2224 2585 3397 3609
2602 8 578 580 2085 2227 2228 2251 2587 3620
2603 5 1174 2229 2231 3618 3620
2604 3 2723 2962 3203
2605 4 2599 3533 3540 3543
2606 3 2224 2589 4726
2607 10 2599 2846 2931 3509 3524 3610 3613 4284 4313 4319
2608 1 3612
2609 2 3509 3613
2610 4 3217 3508 3515 3617
2611 7 1143 1199 3616 3618 4517 4530 4574
2612 5 1798 2588 2847 3617 3619
2613 4 3620 4275 4276 4287
2614 3 2168 2690 2834
2615 3 2690 2855 2976
2616 3 2690 2855 2981
2617 20 315 316 317 1967 2118 2167 2338 2340 2689 2690 2835 2855 2856 2975 2977 2980 2982 2995 2996 3083
2618 17 2168 2833 2854 2857 2970 2971 2972 2973 2989 2990 2991 2992 2993 2994 4371 4405 4430
2619 9 2690 2834 2857 2978 2979 2985 3003 4410 4439
2620 5 62 267 338 500 2009
2621 5 267 336 337 339 500
2622 1 3583
2623 6 2197 2859 2860 3574 3575 3576
2624 5 414 500 2178 2355 3434
2625 27 2172 2197 2690 2836 2837 2838 2839 2840 2841 2842 2858 2860 2974 2977 2982 2984 2987 2997 2998 3000 3001 3002 3083 3583 4409 4439 4458
2626 4 2196 2197 2357 3578
2627 10 320 324 347 473 499 2058 2127 2263 2269 2816
2628 4 2179 2198 2692 2821
2629 9 342 496 499 2179 2691 2820 2821 2918 3040
2630 5 2179 2436 3138 3156 3165
2631 6 327 479 2183 2365 2694 3168
2632 16 417 508 1942 2197 2360 2693 2861 2862 2863 3433 3436 3579 3584 3601 3805 3809
2633 5 2187 2667 2774 2958 3396
2634 3 2926 2961 3014
2635 12 1735 1738 1749 1751 2925 2959 2964 3025 3084 3096 3183 3186
2636 2 2102 2304
2637 8 1659 1691 2072 2099 2302 2303 2337 3086
2638 2 1641 2102
2639 3 1641 2111 2337
2640 6 2186 2187 3396 3587 3631 3649
2641 10 1802 3256 3259 3260 3261 3263 3266 3270 3296 3709
2642 6 631 2874 6434 6460 6461 6462
2643 4 371 4258 4296 6439
2644 4 6426 6427 6436 6437
2645 8 375 378 3059 3274 4240 4260 6428 6437
2646 11 334 617 622 1666 2037 2157 2236 2237 2240 2390 3272
2647 5 401 625 2040 2158 3058
2648 7 378 3059 3114 3143 3150 4241 6447
2649 7 404 626 632 2043 2732 3060 4242
2650 39 333 631 2155 2388 3114 3139 3140 3146 3150 3151 3276 4143 4185 4240 4244 4255 4256 4257 4259 4261 4262 4264 4297 4298 4299 4300 5281 5374 6409 6410 6428 6431 6433 6434 7000 7001 7003 7053 7116
2651 7 2877 3066 3067 3116 3117 3405 4246
2652 10 382 407 632 634 2045 2159 2878 3070 4268 6451
2653 4 406 407 632 3070
2654 2 383 3075
2655 8 287 2273 3071 3074 6412 6453 6454 6455
2656 2 383 6456
2657 2 3074 6413
2658 5 633 635 3153 4269 4290
2659 9 628 2159 2242 2877 2879 3197 3356 4246 4346
2660 8 383 2662 3075 3076 4308 6416 6418 6421
2661 11 634 2159 2879 3073 4292 4309 6414 6415 6417 6419 6420
2662 10 384 2160 2660 2682 3076 4271 4308 4311 6429 6459
2663 8 636 3030 3155 3281 4201 4247 4270 6457
2664 10 2161 3025 3154 3282 3359 4174 4193 4273 4293 5391
2665 3 2880 3362 4201
2666 5 2162 2881 2954 3283 3284
2667 3 2633 3396 3741
2668 2 1057 3660
2669 2 2565 3633
2670 4 2565 3628 3633 3658
2671 3 2565 3633 3681
2672 20 1020 1037 1058 1059 1060 2565 2744 2795 3596 3604 3633 3637 3656 3657 3660 3663 3664 3666 3668 3669
2673 11 1036 1062 2566 3632 3659 3667 3682 3684 6488 6489 6498
2674 15 901 1040 1041 1042 1092 1093 1094 1107 2516 2779 3661 3662 3683 6651 6700
2675 5 2873 2888 28429 28433 28456
2676 3 2086 2161 3025
2677 12 2703 3258 3261 3294 3295 3298 3300 3301 3369 3422 3443 3816
2678 3 2704 3268 3824
2679 11 1218 1251 2767 2769 2781 2823 2831 3026 3478 3479 3480
2680 3 1746 2912 2926
2681 2 1739 3163
2682 10 1734 1736 1737 1740 1746 2160 2191 2662 2960 3088
2683 3 2776 2927 3098
2684 5 1755 1757 2305 3089 3097
2685 10 2699 2705 2719 2733 2781 3016 3017 3041 3052 3468
2686 3 1746 2960 3088
2687 4 1746 1748 2926 3014
2688 5 1691 1743 1745 1746 2912
2689 5 2000 2118 2617 2977 3082
2690 31 317 2167 2168 2192 2338 2352 2614 2615 2616 2617 2619 2625 2834 2835 2838 2839 2841 2855 2856 2976 2978 2979 2981 2982 2983 2985 2986 2987 3003 4409 4439
2691 4 496 499 2629 3424
2692 2 2628 2821
2693 2 2632 3436
2694 7 327 328 479 2181 2365 2631 5828
2695 7 1798 1799 2849 2871 2887 3219 3220
2696 2 3294 3297
2697 1 3301
2698 8 3300 3686 3693 3697 3701 3702 3716 3718
2699 4 2685 2733 3016 3041
2700 3 3292 3294 3816
2701 4 3294 3297 3952 3985
2702 5 3299 3938 3953 3985 3986
2703 11 2677 3294 3298 3299 3300 3315 3713 3714 3715 3717 3989
2704 7 2678 3256 3264 3268 3296 3694 3826
2705 3 2685 2719 3052
2706 3 3331 3346 4095
2707 10 2470 2717 2865 3053 3054 3055 3330 3331 3846 4069
2708 2 2781 3439
2709 1 2781
2710 7 1661 1662 1834 1838 2064 2091 2131
2711 4 2723 2787 2801 2962
2712 3 2722 2736 2787
2713 2 2743 2794
2714 2 1850 2796
2715 2 2798 3502
2716 4 2469 3239 3339 3349
2717 7 2707 3054 3240 3331 3835 4069 4102
2718 3 2781 2830 3353
2719 12 1224 1268 2063 2131 2685 2705 2781 3027 3052 3771 6712 6713
2720 12 1232 2063 2131 2735 2782 3006 3007 3018 3772 3842 6719 6889
2721 2 2736 2787
2722 9 2025 2069 2112 2712 2736 2737 2773 2787 2962
2723 9 2604 2711 2774 2785 2787 2958 2962 3203 3773
2724 2 2774 2962
2725 1 3210
2726 3 2079 2791 3211
2727 2 2079 2792
2728 4 2054 2079 2793 3199
2729 8 2106 2745 2966 3199 3226 3227 3375 3376
2730 3 629 2745 3229
2731 6 397 615 2036 2153 2874 3058
2732 4 404 625 2043 2649
2733 7 2685 2699 2769 2781 2831 3016 3041
2734 2 2091 2781
2735 9 1217 1233 2720 2782 2910 3007 3402 6719 6889
2736 5 2712 2721 2722 2773 2787
2737 2 2069 2722
2738 3 2025 2788 3462
2739 6 668 679 685 2025 2098 2748
2740 1 2113
2741 8 2075 2113 2790 3207 3209 3210 3373 3380
2742 4 3234 3381 4503 4522
2743 12 642 707 708 2713 2794 2966 3092 3228 3351 3377 3378 3381
2744 5 2055 2564 2672 2795 3637
2745 7 629 630 659 693 2106 2729 2730
2746 4 2798 3502 3510 3566
2747 1 2787
2748 4 668 2025 2739 2788
2749 6 2020 2093 2417 2771 2772 2903
2750 12 268 269 275 484 485 1970 2004 2122 2892 2893 2913 2914
2751 4 2806 2807 2894 5782
2752 1 489
2753 24 271 272 277 488 1972 1973 2006 2808 2809 2810 2811 2812 2813 2894 2895 2896 2936 3039 3045 3046 3795 3797 3810 5790
2754 10 274 278 489 2174 2195 2915 3044 3383 3433 3798
2755 6 2178 2356 2813 2815 3384 3810
2756 5 2177 2197 2814 3050 3433
2757 4 267 413 419 2265
2758 9 85 156 423 491 495 2262 2265 3051 3427
2759 7 2178 2345 2815 2819 2897 2921 3384
2760 14 273 278 490 2174 2176 2195 2359 2814 2915 3047 3048 3049 3050 3433
2761 3 2178 2819 3434
2762 9 2898 2899 2921 3387 3388 3429 3444 3454 3810
2763 3 2434 2437 2821
2764 5 2822 2900 3177 3393 3435
2765 3 2435 3127 3156
2766 2 3156 3438
2767 8 2059 2130 2184 2205 2365 2679 2781 2823
2768 4 2012 2830 2988 3353
2769 5 2679 2733 2781 2831 3026
2770 4 1663 2131 2782 2824
2771 5 2020 2092 2749 2825 2903
2772 13 2093 2749 2783 2784 2786 2825 2902 2903 2904 2923 3004 3010 3022
2773 4 2722 2736 2787 2962
2774 9 2187 2207 2633 2723 2724 2958 2962 3203 3638
2775 1 3089
2776 3 2072 2683 2927
2777 13 2565 2566 2577 2580 2592 2596 3102 3107 3109 3552 3680 3682 3684
2778 4 3102 3109 3684 3742
2779 6 2516 2674 3103 3110 3683 3742
2780 3 1259 2823 3156
2781 17 2091 2130 2131 2679 2685 2708 2709 2718 2719 2733 2734 2767 2769 2830 3041 3353 3439
2782 8 2131 2720 2735 2770 2824 2910 3006 3402
2783 6 2772 2904 2957 3004 3013 3022
2784 2 2772 2904
2785 7 1986 2723 2958 3008 3009 3019 3773
2786 5 350 2093 2772 3010 3441
2787 14 729 730 2025 2711 2712 2721 2722 2723 2736 2747 2773 2801 2962 3773
2788 6 668 682 2025 2738 2748 3462
2789 7 1641 2104 2106 2111 2136 3206 3208
2790 2 2741 3373
2791 1 2726
2792 1 2727
2793 4 2031 2054 2728 3199
2794 5 2713 2743 3351 3374 3377
2795 6 2055 2541 2672 2744 3596 3604
2796 6 1850 2714 2826 2884 2937 6245
2797 9 1844 2826 2827 2937 3305 4324 4326 4328 4329
2798 18 1844 2221 2593 2594 2597 2715 2746 2827 2828 2829 3099 3304 3502 3510 3550 3561 3565 4877
2799 5 2597 2829 3510 3548 3549
2800 4 2222 2599 3510 3548
2801 3 2711 2787 2962
2802 1 691
2803 11 297 331 351 360 668 679 685 688 689 690 2538
2804 5 2052 2075 2140 2336 3205
2805 4 1213 1260 1270 2823
2806 7 276 2123 2751 2894 3042 3043 5782
2807 6 271 1955 2751 2894 2895 5782
2808 6 1956 1972 2006 2753 2895 5783
2809 1 2753
2810 3 1972 2006 2753
2811 2 2753 2896
2812 5 2753 2936 3795 3796 3797
2813 10 1973 1975 2008 2124 2178 2753 2755 3045 3810 5789
2814 10 2173 2174 2194 2197 2756 2760 3047 3048 3049 3050
2815 7 2178 2342 2343 2356 2755 2759 3384
2816 8 499 2057 2127 2266 2268 2627 2916 3425
2817 2 499 3424
2818 8 86 157 422 495 2264 2266 2916 3425
2819 6 2178 2345 2759 2761 2921 3434
2820 1 2629
2821 15 342 2179 2198 2426 2432 2437 2628 2629 2692 2763 2919 2920 3040 3135 3390
2822 5 2764 2900 3178 3393 3435
2823 11 1213 1218 2183 2365 2679 2767 2780 2805 3138 3156 3168
2824 9 1663 2018 2065 2132 2770 2782 2910 2923 3022
2825 6 2065 2092 2771 2772 2902 2903
2826 5 1844 1850 2796 2797 2937
2827 5 1844 2797 2798 4328 4877
2828 4 2581 2593 2597 2798
2829 5 2221 2597 2798 2799 3510
2830 7 2012 2130 2718 2768 2781 2988 3353
2831 6 2679 2733 2769 3016 3479 3480
2832 1 2962
2833 2 2618 4405
2834 5 2168 2614 2619 2690 2857
2835 3 2617 2690 2856
2836 2 2625 2982
2837 1 2625
2838 2 2625 2690
2839 2 2625 2690
2840 1 2625
2841 2 2625 2690
2842 1 2625
2843 5 2367 2458 2867 2868 3243
2844 7 2869 3246 3247 3253 3254 3343 3348
2845 1 28440
2846 7 2607 2885 2931 3515 3613 3617 4284
2847 4 1798 2612 2871 3619
2848 2 2871 2887
2849 2 2695 2887
2850 3 1255 3398 3452
2851 3 3016 3468 3480
2852 5 1852 1856 1923 3259 3327
2853 5 3262 3267 3268 3328 3843
2854 1 2618
2855 4 2615 2616 2617 2690
2856 6 2617 2690 2835 2980 2982 2999
2857 6 2168 2618 2619 2834 4410 4430
2858 4 2625 3583 4439 4458
2859 2 2623 3574
2860 5 2172 2197 2623 2625 3583
2861 1 2632
2862 2 2632 3579
2863 2 2632 3584
2864 6 1871 1872 2446 2463 2464 3237
2865 4 2707 3330 3331 3844
2866 5 3054 3240 3241 3834 4102
2867 10 2367 2452 2843 3054 3241 3242 3243 3834 3852 4102
2868 12 2458 2843 3243 3244 3246 3837 3838 3839 3852 4104 4106 4113
2869 5 2367 2458 2844 3246 3253
2870 7 1205 1250 2883 2909 2910 3022 3875
2871 8 1798 2695 2847 2848 2887 3218 3534 3619
2872 6 2886 2887 3218 3534 4314 28430
2873 4 2675 2888 28430 28456
2874 15 395 396 631 2036 2153 2388 2642 2731 3058 6426 6427 6435 6436 6437 6462
2875 4 405 2159 3063 3118
2876 4 3029 3068 3152 4306
2877 7 2159 2651 2659 3116 3118 4246 6450
2878 3 2045 2652 6451
2879 7 2159 2659 2661 3197 3198 3356 4292
2880 3 2665 3155 4201
2881 6 2161 2162 2394 2666 2954 3284
2882 4 2591 4280 4282 4283
2883 9 1235 1250 2870 2924 2957 3022 3023 3440 3870
2884 4 1850 1889 2542 2796
2885 9 1799 2846 3617 4280 4283 4284 4285 4313 28458
2886 2 2872 28430
2887 11 1799 1800 2695 2848 2849 2871 2872 3218 3621 28430 28458
2888 4 2675 2873 28430 28433
2889 2 28430 28433
2890 5 1847 2949 3326 28407 28415
2891 5 1848 1931 2949 3224 3326
2892 3 269 485 2750
2893 3 2004 2122 2750
2894 7 271 276 488 2751 2753 2806 2807
2895 8 271 272 277 1955 2753 2807 2808 5783
2896 2 2753 2811
2897 4 2759 2921 3384 3429
2898 3 2762 3387 3429
2899 2 2762 2921
2900 3 2764 2822 3393
2901 2 3156 6777
2902 4 2065 2772 2825 2923
2903 4 2749 2771 2772 2825
2904 7 2772 2783 2784 2908 2924 2957 3010
2905 4 685 2053 2538 2939
2906 3 310 2028 2100
2907 1 2937
2908 3 2904 2924 2957
2909 3 1205 2870 6716
2910 7 2735 2782 2824 2870 3022 3402 6719
2911 3 1739 3094 3163
2912 6 1691 1746 2680 2688 2926 2961
2913 6 275 440 484 1970 2122 2750
2914 6 269 486 1941 2004 2750 5778
2915 4 278 2195 2754 2760
2916 4 2266 2816 2818 3425
2917 3 3384 3429 3810
2918 3 342 496 2629
2919 2 2821 3390
2920 4 342 496 2821 3390
2921 9 463 2759 2762 2819 2897 2899 3388 3429 3434
2922 2 3164 3438
2923 5 2065 2772 2824 2902 3022
2924 7 2883 2904 2908 2957 3010 3023 3440
2925 5 2635 3084 3186 3257 3265
2926 7 1746 2634 2680 2687 2912 2961 3014
2927 7 1752 1754 2072 2683 2776 2938 3098
2928 4 677 681 687 2940
2929 5 655 1797 2055 2541 2542
2930 6 2083 3196 3491 4336 4341 4944
2931 3 2607 2846 4284
2932 1 2945
2933 2 2945 3309
2934 2 2944 3858
2935 1 2944
2936 4 2753 2812 3039 3046
2937 8 2796 2797 2826 2907 2950 3305 3311 6245
2938 7 1748 1752 2072 2277 2927 2961 3014
2939 5 2053 2055 2165 2538 2905
2940 3 687 2055 2928
2941 8 2083 2224 2598 3196 3464 3492 3505 4338
2942 4 3158 3314 3747 3941
2943 2 3158 3941
2944 6 2934 2935 3159 3745 3754 3858
2945 52 1866 1876 1878 1891 1892 1893 1894 1895 1896 1897 1898 1899 1900 1901 1902 1903 1904 1905 1924 1926 2932 2933 2954 2955 3111 3112 3133 3134 3159 3160 3169 3170 3172 3175 3176 3307 3308 3309 3310 3312 3316 3745 3754 3854 3857 3860 3861 4033 4034 4738 5157 5160
2946 2 2968 3038
2947 7 1846 2967 3036 3080 3320 3321 3864
2948 5 1848 2968 2969 3038 3323
2949 14 1848 2890 2891 2969 3033 3038 3325 3326 4846 4847 4848 4849 28415 28438
2950 3 2937 3311 6245
2951 6 693 2106 3056 3077 3184 3483
2952 4 3056 3184 3191 3499
2953 24 2080 2081 2215 2253 2267 3078 3123 3124 3191 3192 3193 3484 3486 3487 3491 3500 3501 3503 4331 4332 4333 4335 4339 4880
2954 16 1866 1876 2161 2162 2666 2881 2945 3031 3176 3283 3359 3360 3416 4204 5435 7095
2955 4 2945 3173 3310 3312
2956 2 28415 28437
2957 8 2783 2883 2904 2908 2924 3022 3023 3870
2958 9 1804 1986 2633 2723 2774 2785 3008 3019 3773
2959 6 2635 3084 3087 3183 3186 3257
2960 5 1720 2191 2682 2686 3088
2961 10 1691 2072 2302 2634 2912 2926 2938 3014 3085 3086
2962 14 2112 2604 2711 2722 2723 2724 2773 2774 2787 2801 2832 3203 3594 3638
2963 3 1759 2105 3204
2964 5 1751 1753 2105 2635 3025
2965 1 3377
2966 4 2729 2743 3228 3378
2967 2 2947 3321
2968 6 1848 2946 2948 3038 3081 3322
2969 4 1848 2948 2949 3038
2970 1 2618
2971 1 2618
2972 1 2618
2973 1 2618
2974 1 2625
2975 3 2617 2995 3083
2976 2 2615 2690
2977 7 2197 2617 2625 2689 2997 3082 3083
2978 2 2619 2690
2979 2 2619 2690
2980 2 2617 2856
2981 2 2616 2690
2982 10 2617 2625 2690 2836 2856 2998 2999 3000 3001 3083
2983 2 2690 3003
2984 1 2625
2985 2 2619 2690
2986 1 2690
2987 2 2625 2690
2988 3 2768 2830 3353
2989 2 2168 2618
2990 1 2618
2991 1 2618
2992 1 2618
2993 1 2618
2994 1 2618
2995 3 2617 2975 3083
2996 2 2617 3083
2997 3 2625 2977 3083
2998 2 2625 2982
2999 2 2856 2982
3000 2 2625 2982
3001 2 2625 2982
3002 1 2625
3003 3 2619 2690 2983
3004 2 2772 2783
3005 1 3440
3006 3 2131 2720 2782
3007 2 2720 2735
3008 3 1986 2785 2958
3009 2 2785 3773
3010 5 2772 2786 2904 2924 3440
3011 2 3020 3035
3012 4 3021 3035 3255 3983
3013 2 2783 3022
3014 6 1748 2634 2687 2926 2938 2961
3015 3 2112 2564 3594
3016 7 2685 2699 2733 2831 2851 3468 3480
3017 2 2685 3468
3018 3 1232 2720 6719
3019 3 2785 2958 3773
3020 5 3011 3035 3620 4274 4277
3021 5 3012 3035 3255 28441 28443
3022 10 1250 2772 2783 2824 2870 2883 2910 2923 2957 3013
3023 4 2883 2924 2957 3870
3024 5 1355 1624 1638 2026 2056
3025 9 2086 2105 2161 2635 2664 2676 2964 3154 3183
3026 2 2679 2769
3027 1 2719
3028 1 2397
3029 6 2876 3068 3279 4267 4305 4362
3030 4 636 2663 4201 4270
3031 11 2954 3288 3416 3933 3941 3945 4142 4166 4204 5273 5435
3032 4 3037 3162 3932 4020
3033 7 2949 3038 3324 3325 3964 4065 4841
3034 2 4275 4279
3035 6 3011 3012 3020 3021 3620 3983
3036 2 2947 3864
3037 14 3032 3161 3162 3767 3866 3931 3932 4009 4020 4044 4066 4067 5218 5219
3038 13 2946 2948 2949 2968 2969 3033 3865 3964 4011 4044 4065 4067 5219
3039 2 2753 2936
3040 3 2179 2629 2821
3041 4 2685 2699 2733 2781
3042 1 2806
3043 1 2806
3044 1 2754
3045 2 2753 2813
3046 2 2753 2936
3047 2 2760 2814
3048 2 2760 2814
3049 2 2760 2814
3050 4 2756 2760 2814 3433
3051 3 2262 2265 2758
3052 5 2685 2705 2719 3468 3771
3053 5 2707 3055 3252 3336 3846
3054 8 2452 2470 2707 2717 2866 2867 3240 3241
3055 11 1854 2456 2457 2470 2707 3053 3236 3306 3336 3339 3347
3056 9 2219 2245 2252 2951 2952 3077 3078 3184 3191
3057 3 279 3139 6439
3058 18 396 397 398 399 400 401 404 615 625 2040 2270 2647 2731 2874 3144 3271 6407 6427
3059 5 375 378 2645 2648 6447
3060 13 280 281 282 373 374 376 379 402 403 404 2649 3275 4242
3061 3 379 632 4242
3062 1 405
3063 9 379 405 632 2159 2875 3118 6441 6442 6443
3064 5 285 3150 4302 6444 6447
3065 4 3067 4245 4303 6445
3066 2 2651 3117
3067 11 380 381 2651 3065 3115 3116 3117 4245 4301 6445 6450
3068 5 2876 3029 4305 4306 4362
3069 5 633 4289 4307 5377 6452
3070 6 286 382 407 2652 2653 4268
3071 1 2655
3072 3 286 634 4268
3073 2 634 2661
3074 5 287 2655 2657 6412 6413
3075 4 383 2654 2660 6416
3076 5 383 384 2660 2662 4308
3077 5 1805 2106 2245 2951 3056
3078 7 1885 2219 2246 2267 2953 3056 3191
3079 8 1877 1878 1886 3111 3112 3317 3318 3863
3080 9 1846 1882 1883 1887 1917 1918 2947 3320 3864
3081 4 1848 1884 2968 3322
3082 5 2118 2197 2689 2977 3471
3083 8 2617 2625 2975 2977 2982 2995 2996 2997
3084 4 2635 2925 2959 3257
3085 2 1691 2961
3086 4 1691 2302 2637 2961
3087 2 2959 3186
3088 4 1746 2682 2686 2960
3089 5 2102 2304 2305 2684 2775
3090 4 2594 3099 3504 3550
3091 4 2577 2580 2582 3552
3092 3 2743 3351 3381
3093 1 1743
3094 5 1741 1742 1763 2911 3163
3095 2 1691 1744
3096 1 2635
3097 2 1755 2684
3098 2 2683 2927
3099 4 2594 2798 3090 3550
3100 3 2596 3107 3552
3101 4 2597 3108 3545 3546
3102 8 2777 2778 3107 3109 3552 3553 3742 3815
3103 4 2779 3110 3683 3742
3104 2 1878 3112
3105 1 3112
3106 5 1890 2594 2595 3482 3552
3107 5 2596 2777 3100 3102 3552
3108 6 2597 3101 3482 3546 3547 3552
3109 4 2777 2778 3102 3684
3110 9 2223 2516 2599 2779 3103 3511 3742 4281 28458
3111 6 1877 1878 1901 2945 3079 3160
3112 10 1878 2945 3079 3104 3105 3763 3861 3862 3863 4854
3113 1 3276
3114 6 2648 2650 3143 3150 3276 4240
3115 2 3067 4245
3116 5 381 2651 2877 3067 6450
3117 6 2651 3066 3067 3405 4245 4303
3118 10 405 2159 2875 2877 3063 4243 6443 6448 6449 6450
3119 3 3154 3358 3411
3120 5 2244 2397 3289 3368 5275
3121 4 3369 3370 3421 3422
3122 5 1851 2244 3290 3291 3370
3123 4 2953 3192 3500 4878
3124 2 2267 2953
3125 4 2255 2256 2278 3490
3126 5 2425 2431 2435 3156 3164
3127 2 2765 3156
3128 1 3165
3129 3 3156 3164 3166
3130 4 3137 3156 3166 3179
3131 4 3137 3156 3166 3179
3132 2 3159 3316
3133 3 2945 3159 3316
3134 2 2945 3159
3135 2 2437 2821
3136 3 2424 2435 3165
3137 4 3130 3131 3166 3179
3138 8 349 478 2436 2630 2823 3156 3167 3168
3139 5 279 2650 3057 6431 6439
3140 1 2650
3141 1 4296
3142 4 4260 6407 6427 6437
3143 5 378 2648 3114 4240 4241
3144 7 280 372 377 404 3058 3273 6408
3145 1 3278
3146 4 2650 4264 7115 7116
3147 1 3278
3148 1 3278
3149 2 3278 5279
3150 15 283 284 285 2648 2650 3064 3114 3276 3277 4244 4265 4300 4302 6444 6447
3151 5 2650 4143 4244 4265 5315
3152 5 335 633 2876 4306 6452
3153 8 2658 4269 4290 5404 5406 5415 5447 7081
3154 8 2664 3025 3119 3183 3358 3411 4293 5331
3155 5 2663 2880 4201 4247 4312
3156 29 429 447 448 451 470 471 1259 2424 2435 2630 2765 2766 2780 2823 2901 3126 3127 3129 3130 3131 3138 3164 3165 3166 3179 3395 3438 6777 6788
3157 6 3746 3774 3778 3909 3935 3936
3158 3 2942 2943 3941
3159 11 2944 2945 3132 3133 3134 3170 3171 3316 3745 3754 4852
3160 2 2945 3111
3161 4 3037 3866 4009 4068
3162 3 3032 3037 4020
3163 4 1739 2681 2911 3094
3164 17 2421 2422 2429 2431 2438 2439 2440 2922 3126 3129 3156 3177 3390 3391 3393 3435 3438
3165 7 2179 2424 2435 2630 3128 3136 3156
3166 5 3129 3130 3131 3137 3156
3167 3 478 2436 3138
3168 7 349 478 479 2183 2631 2823 3138
3169 2 2945 3310
3170 4 2945 3159 3309 3745
3171 3 3159 3754 4852
3172 2 2945 3310
3173 3 2955 3310 3312
3174 4 3307 3308 3313 3857
3175 6 2945 3308 3310 3312 3313 3745
3176 8 2945 2954 3416 3934 3945 4045 4728 4738
3177 5 2764 3164 3391 3393 3435
3178 3 2822 3393 3435
3179 4 3130 3131 3137 3156
3180 2 3186 3202
3181 1 3186
3182 1 3186
3183 8 2635 2959 3025 3154 3186 3358 3410 3411
3184 6 2951 2952 3056 3483 3499 4505
3185 12 2527 2533 2534 2535 2536 2544 2545 3570 3640 3670 3671 3673
3186 12 2635 2925 2959 3087 3180 3181 3182 3183 3201 3202 3257 3265
3187 6 1758 1760 1762 2102 2305 2418
3188 1 3595
3189 2 3595 6586
3190 6 2564 3595 3626 3636 3637 6580
3191 9 2952 2953 3056 3078 3499 3500 4505 4878 4976
3192 4 2953 3123 3503 4878
3193 5 2080 2215 2216 2267 2953
3194 4 2217 2386 3490 3491
3195 2 2248 2278
3196 5 2083 2930 2941 3492 4336
3197 3 2659 2879 3356
3198 7 2879 3356 3357 3407 4292 6424 6430
3199 6 2031 2054 2106 2728 2729 2793
3200 4 2213 3238 3332 3345
3201 1 3186
3202 2 3180 3186
3203 4 2604 2723 2774 2962
3204 2 2105 2963
3205 4 2075 2104 2336 2804
3206 1 2789
3207 1 2741
3208 2 2104 2789
3209 1 2741
3210 4 2075 2104 2725 2741
3211 4 2054 2079 2106 2726
3212 1 2106
3213 3 3524 4632 4893
3214 2 3509 3526
3215 3 3509 3517 3527
3216 3 3528 4820 4895
3217 4 2610 3508 3515 3617
3218 4 2871 2872 2887 3534
3219 1 2695
3220 1 2695
3221 2 3537 28433
3222 4 3537 3538 28430 28433
3223 4 28416 28430 28456 28457
3224 2 1848 2891
3225 2 2045 4304
3226 1 2729
3227 1 2729
3228 2 2743 2966
3229 1 2730
3230 2 3380 3403
3231 3 3351 3374 3381
3232 1 3404
3233 2 3404 4502
3234 3 2742 4522 6258
3235 6 3239 3306 3332 3334 3335 3339
3236 6 1854 2454 2468 2485 3055 3339
3237 4 1861 1871 2464 2864
3238 3 2213 3200 3345
3239 5 2716 3235 3334 3339 3349
3240 5 2717 2866 3054 3241 4102
3241 6 2866 2867 3054 3240 3834 4102
3242 2 2367 2867
3243 4 2843 2867 2868 3852
3244 1 2868
3245 4 1864 2494 3340 28420
3246 7 2458 2844 2868 2869 3343 3839 3853
3247 6 1864 2844 3253 3254 3340 3342
3248 6 2489 2490 3341 28419 28420 28440
3249 2 28441 28443
3250 3 3268 3819 3843
3251 2 3332 4085
3252 2 3053 3336
3253 5 1864 2367 2844 2869 3247
3254 2 2844 3247
3255 4 3012 3021 3983 28443
3256 6 2641 2704 3263 3268 3270 3296
3257 5 2925 2959 3084 3186 3265
3258 3 2677 3369 3443
3259 4 1802 1923 2641 2852
3260 1 2641
3261 12 2641 2677 3266 3300 3301 3302 3303 3690 3709 3710 3711 3722
3262 2 2853 3267
3263 4 2641 3256 3268 3270
3264 5 2704 3694 3820 3826 3926
3265 3 2925 3186 3257
3266 5 1802 1923 2641 3261 3301
3267 2 2853 3262
3268 8 2678 2704 2853 3250 3256 3263 3824 3843
3269 3 3467 3469 3869
3270 3 2641 3256 3263
3271 4 400 2040 2270 3058
3272 5 334 615 2037 2237 2646
3273 2 280 3144
3274 3 375 2645 4260
3275 2 373 3060
3276 4 2650 3113 3114 3150
3277 1 3150
3278 8 3145 3147 3148 3149 4288 5279 7002 7052
3279 2 3029 4362
3280 3 1281 4362 5377
3281 3 2663 4201 4247
3282 2 2664 4273
3283 2 2666 2954
3284 2 2666 2881
3285 3 1866 2162 2394
3286 1 3367
3287 2 3366 3415
3288 2 3031 3945
3289 3 3120 3368 3418
3290 1 3122
3291 2 3122 3370
3292 2 2700 3294
3293 1 3300
3294 13 2677 2696 2700 2701 2703 3292 3297 3298 3299 3816 3952 3984 3985
3295 1 2677
3296 7 2641 2704 3256 3694 3707 3709 3711
3297 4 2696 2701 3294 3985
3298 4 2677 2703 3294 3315
3299 6 2702 2703 3294 3985 3986 3989
3300 12 2677 2698 2703 3261 3293 3303 3689 3696 3697 3702 3714 3717
3301 7 1922 1923 2677 2697 3261 3266 3422
3302 3 3261 3303 3690
3303 3 3261 3300 3302
3304 4 2798 3561 4325 4877
3305 9 2797 2937 3311 4315 4322 4323 4327 4329 6769
3306 6 3055 3235 3332 3335 3336 3339
3307 4 2945 3174 3308 3857
3308 6 2945 3174 3175 3307 3312 3313
3309 3 2933 2945 3170
3310 7 2945 2955 3169 3172 3173 3175 3312
3311 7 2937 2950 3305 4322 4327 6245 6767
3312 6 2945 2955 3173 3175 3308 3310
3313 7 3174 3175 3308 3745 3857 3858 4995
3314 1 2942
3315 2 2703 3298
3316 4 2945 3132 3133 3159
3317 1 3079
3318 1 3079
3319 2 28438 28464
3320 2 2947 3080
3321 2 2947 2967
3322 2 2968 3081
3323 1 2948
3324 2 3033 4841
3325 2 2949 3033
3326 6 1847 1848 2890 2891 2949 28407
3327 3 1856 2481 2852
3328 9 1858 2471 2482 2853 3333 3337 3338 3843 4099
3329 1 4085
3330 4 2707 2865 3844 3846
3331 17 2706 2707 2717 2865 3346 3844 3848 3849 3975 4060 4069 4075 4083 4093 4095 4100 4101
3332 13 1874 2213 2449 2459 3200 3235 3251 3306 3334 3345 3349 4085 4117
3333 6 1869 2492 3328 3337 3338 3344
3334 4 3235 3239 3332 3349
3335 3 3235 3306 3339
3336 4 3053 3055 3252 3306
3337 4 1858 1869 3328 3333
3338 4 3328 3333 3344 4099
3339 13 2444 2451 2468 2469 2484 2716 3055 3235 3236 3239 3306 3335 3347
3340 3 1864 3245 3247
3341 1 3248
3342 2 1864 3247
3343 5 2844 3246 3348 3840 3853
3344 6 1861 2464 2492 3333 3338 4099
3345 5 2213 3200 3238 3332 4085
3346 4 2706 3331 4060 4095
3347 2 3055 3339
3348 3 2844 3343 3840
3349 10 1853 2450 2459 2466 2469 2474 2716 3239 3332 3334
3350 2 3396 6730
3351 6 2743 2794 3092 3231 3374 3381
3352 3 2224 3466 4726
3353 12 2012 2060 2089 2090 2718 2768 2781 2830 2988 3439 3494 3496
3354 2 3405 5222
3355 9 1278 1283 3405 5222 5223 5224 7005 7010 7102
3356 20 1284 1285 2659 2879 3197 3198 3405 3406 3407 4129 4170 4346 5284 5290 5376 5403 5417 7015 7016 7103
3357 9 3198 3407 3408 3409 4170 4272 6430 7088 7131
3358 10 3119 3154 3183 3410 3411 5331 5388 7089 7090 7132
3359 9 1296 2161 2664 2954 4159 5391 5401 6979 7095
3360 4 2954 4159 4204 7095
3361 6 3412 4136 4202 4363 4364 5431
3362 14 2665 3412 4136 4137 4138 4163 4180 4201 4364 4365 4366 5265 7033 7037
3363 3 3414 4140 6991
3364 7 3413 4139 4140 4183 4367 4368 5314
3365 5 3414 3417 4141 4369 4370
3366 2 3287 3415
3367 4 3286 3414 3417 4370
3368 8 3120 3289 3415 3418 3419 3420 5275 7051
3369 5 2677 3121 3258 3421 3422
3370 6 1851 2243 3121 3122 3291 3422
3371 2 3443 3816
3372 1 3443
3373 3 2741 2790 3380
3374 3 2794 3231 3351
3375 1 2729
3376 1 2729
3377 3 2743 2794 2965
3378 2 2743 2966
3379 8 641 651 2078 2103 3401 3404 4238 4250
3380 4 2741 3230 3373 3403
3381 7 707 2742 2743 3092 3231 3351 4503
3382 6 455 456 481 2285 2496 3423
3383 5 444 489 2174 2498 2754
3384 7 2755 2759 2815 2897 2917 3429 3810
3385 8 318 415 424 426 472 492 3431 5795
3386 4 419 492 3427 3453
3387 5 2762 2898 3429 3454 3810
3388 10 416 445 446 463 507 2762 2921 3434 3444 3738
3389 3 3437 3444 3810
3390 11 496 2421 2426 2429 2821 2919 2920 3164 3428 3430 3435
3391 3 3164 3177 3435
3392 3 3456 3855 5831
3393 14 2764 2822 2900 3164 3177 3178 3435 3438 3445 3448 3455 3456 3856 5831
3394 3 3438 3449 3457
3395 5 3156 3438 3457 6724 6777
3396 18 522 526 2187 2633 2640 2667 3350 3587 3729 3730 3740 3741 3814 4524 6730 6778 6781 6782
3397 11 1157 1177 1195 2224 2226 2585 2601 3466 3608 3609 4514
3398 5 1138 1255 2850 3440 3452
3399 6 720 735 1139 1140 3441 3442
3400 2 736 3441
3401 4 2103 2113 3379 3404
3402 3 2735 2782 2910
3403 2 3230 3380
3404 9 2113 3232 3233 3379 3401 4238 4248 4252 4502
3405 11 2651 3117 3354 3355 3356 4246 4303 4346 5222 5376 7010
3406 4 1290 3356 4129 5417
3407 4 3198 3356 3357 4170
3408 2 3357 7131
3409 2 3357 7131
3410 4 3183 3358 3411 7132
3411 5 3119 3154 3183 3358 3410
3412 5 3361 3362 4136 4364 5431
3413 4 3364 4139 4366 5265
3414 7 3363 3365 3367 4141 4369 4370 6991
3415 4 3287 3366 3368 7051
3416 4 2954 3031 3176 3945
3417 7 3365 3367 4141 4370 6997 6998 7046
3418 2 3289 3368
3419 2 3368 7051
3420 2 3368 5275
3421 2 3121 3369
3422 7 1851 1922 2677 3121 3301 3369 3370
3423 9 453 455 481 509 2116 2285 2310 3382 5762
3424 4 496 499 2691 2817
3425 5 494 495 2816 2818 2916
3426 1 495
3427 10 419 475 477 491 492 495 2265 2758 3386 3453
3428 2 496 3390
3429 8 2762 2897 2898 2917 2921 3384 3387 3810
3430 3 476 493 3390
3431 7 424 426 477 500 3385 3799 3803
3432 1 3803
3433 16 274 490 517 2177 2360 2632 2754 2756 2760 3050 3798 3805 4506 4507 5804 5806
3434 16 420 425 427 498 500 2178 2624 2761 2819 2921 3388 3727 3738 3803 6770 6771
3435 14 2764 2822 3164 3177 3178 3390 3391 3393 3456 3800 3801 3802 3804 3806
3436 6 417 508 2632 2693 3805 3809
3437 5 428 3389 3444 3808 3810
3438 14 1386 2766 2922 3156 3164 3393 3394 3395 3445 3446 3447 3449 3457 3856
3439 8 2048 2090 2091 2708 2781 3353 3495 3497
3440 7 1235 2883 2924 3005 3010 3398 3452
3441 13 331 350 360 369 714 723 736 2786 3399 3400 3442 3460 3461
3442 2 3399 3441
3443 5 2677 3258 3371 3372 3816
3444 7 2762 3388 3389 3437 3738 3808 3810
3445 2 3393 3438
3446 1 3438
3447 3 1386 3438 3856
3448 2 3393 3856
3449 3 3394 3438 3457
3450 2 3459 3467
3451 6 3463 3869 3956 3957 6710 6788
3452 6 717 1235 1255 2850 3398 3440
3453 2 3386 3427
3454 3 2762 3387 3810
3455 2 3393 5831
3456 11 518 521 525 3392 3393 3435 3739 3806 3813 3855 5831
3457 7 3394 3395 3438 3449 3856 6724 6776
3458 3 1237 3468 6713
3459 5 429 465 470 3450 3467
3460 2 736 3441
3461 2 714 3441
3462 5 682 723 2025 2738 2788
3463 2 3451 3956
3464 8 1175 2583 2598 2941 3605 4338 4345 4888
3465 5 1175 2589 3606 3607 4726
3466 9 1155 1168 1176 1192 2224 3352 3397 4514 4726
3467 8 465 470 3269 3450 3459 3469 3869 3957
3468 18 709 719 1134 1237 1251 1257 1272 2685 2851 3016 3017 3052 3458 3480 3498 3771 3828 6713
3469 6 465 3269 3467 3869 3955 3956
3470 1 2118
3471 2 2197 3082
3472 2 3488 4332
3473 2 3491 4333
3474 3 3481 3503 4330
3475 4 3485 3510 3566 3567
3476 2 3510 3564
3477 2 3552 3555
3478 3 1218 1251 2679
3479 2 2679 2831
3480 6 1251 2679 2831 2851 3016 3468
3481 4 3474 3503 4330 4339
3482 8 2594 3106 3108 3504 3546 3550 3551 3552
3483 6 662 693 2951 3184 4348 4505
3484 2 2953 4339
3485 4 3475 3510 3567 3568
3486 4 2953 3503 4332 4339
3487 2 2953 4332
3488 6 3472 3503 4332 4880 4943 6334
3489 2 2249 2386
3490 10 2217 2248 2253 2254 2255 2256 2267 2386 3125 3194
3491 17 2081 2083 2217 2249 2253 2386 2930 2953 3194 3473 4333 4335 4340 4351 4796 4880 4944
3492 4 2941 3196 3505 4336
3493 2 3515 3617
3494 1 3353
3495 1 3439
3496 1 3353
3497 1 3439
3498 3 709 719 3468
3499 4 2952 3184 3191 4505
3500 5 2953 3123 3191 4334 4878
3501 2 2953 4339
3502 8 2715 2746 2798 3563 3565 3566 3567 3568
3503 13 2953 3192 3474 3481 3486 3488 4330 4332 4339 4342 4878 4879 6334
3504 5 2594 3090 3482 3550 3551
3505 8 2941 3492 4336 4337 4338 4343 4885 4939
3506 4 2223 3511 3536 3549
3507 2 3515 3617
3508 3 2610 3217 3515
3509 16 2607 2609 3214 3215 3514 3515 3517 3526 3527 3528 3610 3613 4356 4637 4825 4895
3510 23 2222 2746 2798 2799 2800 2829 3475 3476 3485 3524 3548 3564 3566 3569 4318 4621 4797 4882 4884 4886 6282 6340 6344
3511 6 2223 3110 3506 3547 3549 3742
3512 7 3524 4318 4629 4887 6284 6285 6344
3513 2 3527 4637
3514 3 3509 3528 4825
3515 11 2610 2846 3217 3493 3507 3508 3509 3529 3613 3617 4356
3516 5 3522 3523 3525 3527 3610
3517 4 3215 3509 3527 4637
3518 4 3529 3685 4644 4645
3519 4 3530 3531 4836 28430
3520 2 3524 3610
3521 1 3524
3522 5 3516 3524 3525 3610 4632
3523 6 3516 3525 3527 4637 6288 6290
3524 18 2222 2599 2607 3213 3510 3512 3520 3521 3522 3610 4318 4319 4629 4632 4810 4890 4892 4893
3525 8 3516 3522 3523 4632 4812 6287 6288 6346
3526 2 3214 3509
3527 8 3215 3509 3513 3516 3517 3523 3610 4637
3528 7 3216 3509 3514 4820 4825 4895 6352
3529 19 2588 3515 3518 3534 3541 3544 3617 3619 3685 4356 4645 4650 4651 4826 4831 4898 4941 6299 6360
3530 16 3519 3534 3556 4651 4652 4653 4836 4838 4900 4901 4902 4903 4904 6305 6362 28430
3531 9 3519 3532 3954 4653 4656 4838 28430 28455 28497
3532 4 3531 3954 28430 28455
3533 4 2599 2605 3543 3548
3534 8 2871 2872 3218 3529 3530 3619 4651 28430
3535 3 3543 3548 3549
3536 8 2223 3506 3539 3540 3542 3543 3549 4317
3537 7 3221 3222 3557 3558 3559 28430 28433
3538 3 3222 3559 28430
3539 2 3536 3542
3540 6 2223 2578 2599 2605 3536 3543
3541 3 3529 3544 3619
3542 3 3536 3539 4317
3543 8 2605 3533 3535 3536 3540 3548 3549 4317
3544 3 3529 3541 3619
3545 6 2581 2593 2597 3101 3550 3554
3546 5 3101 3108 3482 3550 3554
3547 6 2597 3108 3511 3549 3552 3742
3548 8 2599 2799 2800 3510 3533 3535 3543 3549
3549 10 2597 2799 3506 3511 3535 3536 3543 3547 3548 4316
3550 10 2593 2798 3090 3099 3482 3504 3545 3546 3551 3554
3551 3 3482 3504 3550
3552 20 2580 2582 2595 2596 2777 3091 3100 3102 3106 3107 3108 3477 3482 3547 3555 3742 3815 3867 3868 3874
3553 5 3102 3742 3815 3897 3898
3554 3 3545 3546 3550
3555 2 3477 3552
3556 4 3530 4838 4901 4902
3557 3 3537 3558 3559
3558 2 3537 3557
3559 4 3537 3538 3557 28430
3560 3 4714 4778 4877
3561 4 2798 3304 3565 4877
3562 1 3565
3563 3 3502 3565 3568
3564 7 3476 3510 3569 4619 4791 4797 6336
3565 5 2798 3502 3561 3562 3563
3566 5 2746 3475 3502 3510 3567
3567 5 3475 3485 3502 3566 3568
3568 4 3485 3502 3563 3567
3569 2 3510 3564
3570 3 2536 3185 3673
3571 3 2557 3640 3672
3572 3 3623 3631 3645
3573 17 956 963 1047 1048 1118 3594 3638 3643 3644 3647 3648 3650 6533 6535 6546 6549 6552
3574 2 2623 2859
3575 1 2623
3576 1 2623
3577 1 4456
3578 1 2626
3579 3 2632 2862 3598
3580 7 4378 4384 4387 4388 4392 4439 4458
3581 2 747 4392
3582 3 760 6097 6099
3583 15 745 2622 2625 2858 2860 4452 4453 4455 4456 4457 4458 5796 6095 6096 6102
3584 9 760 2632 2863 3599 3600 3602 5814 5816 6133
3585 1 3622
3586 1 3622
3587 15 757 832 2640 3396 3622 3623 3631 3645 3814 4513 5844 5898 5931 5935 6135
3588 5 897 3590 3622 5939 5940
3589 3 2515 2557 3640
3590 3 897 3588 3622
3591 2 895 3624
3592 5 3603 3624 3631 3646 3649
3593 9 1024 1029 1047 1117 3625 3638 3642 3650 6536
3594 10 1118 2112 2564 2962 3015 3573 3636 3638 3648 3675
3595 13 957 964 965 3188 3189 3190 3636 3675 6559 6560 6566 6572 6586
3596 4 2672 2795 3604 3656
3597 2 3630 28428
3598 1 3579
3599 3 3584 5814 5816
3600 1 3584
3601 6 2632 3809 3811 3812 4509 4512
3602 1 3584
3603 4 3592 3624 3631 3645
3604 6 2541 2565 2672 2795 3596 3656
3605 3 1175 2583 3464
3606 4 1175 2584 2589 3465
3607 3 2589 3465 4726
3608 8 2083 2084 2087 2088 2226 2251 2585 3397
3609 3 2585 2601 3397
3610 7 2607 3509 3516 3520 3522 3524 3527
3611 3 2226 2586 4526
3612 6 2226 2608 4516 4526 4573 4709
3613 5 2607 2609 2846 3509 3515
3614 1 2226
3615 1 2226
3616 4 1143 1182 1199 2611
3617 12 1798 1799 2588 2610 2612 2846 2885 3217 3493 3507 3515 3529
3618 20 1141 1161 1170 1174 1180 1197 1198 1199 2229 2603 2611 4517 4518 4519 4529 4530 4574 4593 6353 6354
3619 8 2588 2612 2847 2871 3529 3534 3541 3544
3620 21 580 1174 2085 2228 2229 2231 2602 2603 2613 3020 3035 3983 4253 4274 4275 4276 4277 4278 4279 4286 4577
3621 5 2887 28430 28434 28436 28458
3622 6 3585 3586 3587 3588 3590 3645
3623 4 3572 3587 3631 3645
3624 8 895 896 970 3591 3592 3603 3645 3646
3625 11 1044 1045 1116 1117 2186 3593 3635 3638 3646 3649 6523
3626 6 3190 3637 6578 6579 6580 6581
3627 6 968 3637 6582 6583 6584 6589
3628 1 2670
3629 4 2516 3677 6703 28428
3630 5 3597 3678 6703 28428 28459
3631 8 2640 3572 3587 3592 3603 3623 3645 3649
3632 1 2673
3633 7 1037 2565 2669 2670 2671 2672 3658
3634 4 2556 3639 3671 6464
3635 4 2186 2207 3625 3638
3636 5 2564 3190 3594 3595 3675
3637 8 2564 2672 2744 3190 3626 3627 3655 3660
3638 14 2207 2774 2962 3573 3593 3594 3625 3635 3642 3643 3644 3647 3648 3650
3639 5 2513 2533 2544 3634 3671
3640 13 2515 2519 2520 2521 2523 2556 2557 3185 3571 3589 3670 3671 3672
3641 2 2511 2515
3642 3 3593 3638 3650
3643 2 3573 3638
3644 2 3573 3638
3645 7 3572 3587 3603 3622 3623 3624 3631
3646 8 970 1044 1061 3592 3624 3625 3649 6517
3647 3 3573 3638 3650
3648 3 3573 3594 3638
3649 6 2186 2640 3592 3625 3631 3646
3650 6 1047 3573 3593 3638 3642 3647
3651 1 3653
3652 1 3654
3653 1 3651
3654 1 3652
3655 2 3637 3660
3656 4 2565 2672 3596 3604
3657 1 2672
3658 3 2565 2670 3633
3659 3 1062 2673 3667
3660 4 2668 2672 3637 3655
3661 1 2674
3662 2 1107 2674
3663 2 1020 2672
3664 2 1060 2672
3665 2 1020 1059
3666 1 2672
3667 4 1038 1062 2673 3659
3668 1 2672
3669 1 2672
3670 4 2520 2535 3185 3640
3671 6 2533 2556 3185 3634 3639 3640
3672 4 2556 2557 3571 3640
3673 4 2536 2545 3185 3570
3674 6 2515 2540 2559 2567 2574 3876
3675 5 1118 3594 3595 3636 6560
3676 2 2516 6700
3677 18 1103 1104 1105 1106 1108 1109 2516 3629 6475 6623 6638 6656 6663 6673 6700 6701 6702 6703
3678 4 1110 3630 6476 6703
3679 3 1106 6475 28506
3680 2 2777 3682
3681 2 2565 2671
3682 4 2566 2673 2777 3680
3683 4 2674 2779 3103 3742
3684 6 2566 2673 2777 2778 3109 3742
3685 3 3518 3529 6299
3686 4 2698 3689 3701 3702
3687 2 3710 3722
3688 3 3707 3711 3722
3689 3 3300 3686 3702
3690 3 3261 3302 3710
3691 7 3715 3990 3992 3993 3994 4695 4978
3692 1 3715
3693 3 2698 3701 3716
3694 17 2704 3264 3296 3698 3706 3707 3708 3712 3719 3720 3721 3722 3786 3820 3822 3995 4706
3695 3 6242 6245 6767
3696 2 3300 3717
3697 3 2698 3300 3718
3698 1 3694
3699 1 3722
3700 1 3722
3701 3 2698 3686 3693
3702 4 2698 3300 3686 3689
3703 1 3722
3704 1 3722
3705 1 3722
3706 2 3694 3719
3707 5 3296 3688 3694 3711 3722
3708 3 3694 3712 3786
3709 4 2641 3261 3296 3711
3710 4 3261 3687 3690 3722
3711 6 3261 3296 3688 3707 3709 3722
3712 4 3694 3708 3786 3820
3713 2 2703 3717
3714 3 2703 3300 3717
3715 6 2703 3691 3692 3817 3989 3990
3716 3 2698 3693 3718
3717 5 2703 3300 3696 3713 3714
3718 3 2698 3697 3716
3719 2 3694 3706
3720 1 3694
3721 1 3694
3722 12 3261 3687 3688 3694 3699 3700 3703 3704 3705 3707 3710 3711
3723 4 3729 6730 6779 6780
3724 4 3729 6730 6780 6781
3725 2 6730 6781
3726 2 6730 6781
3727 4 3434 3803 6770 6773
3728 2 3806 6775
3729 7 3396 3723 3724 6730 6779 6780 6781
3730 4 3396 6731 6781 6782
3731 4 3741 6731 6782 6783
3732 2 6731 6783
3733 3 1267 3771 3828
3734 11 3755 4028 4029 4031 4732 4733 4763 4853 5021 5023 5024
3735 5 4038 4737 5033 5036 5039
3736 1 6773
3737 3 3739 3807 6775
3738 7 3388 3434 3444 3808 6771 6772 6774
3739 7 518 3456 3737 3806 3807 3813 6775
3740 3 522 3396 4524
3741 5 2667 3396 3731 6782 6783
3742 14 2778 2779 3102 3103 3110 3511 3547 3552 3553 3683 3684 3868 3897 3898
3743 2 3935 4746
3744 4 3858 4018 4747 6817
3745 7 2944 2945 3159 3170 3175 3313 3858
3746 4 3157 3909 3936 4753
3747 16 2942 3776 3777 3934 3941 3945 4015 4740 4743 4748 4751 5002 5003 5121 5135 6825
3748 5 4754 4755 5001 5004 6829
3749 4 3778 4754 5006 6829
3750 6 3779 4027 4729 4758 5011 6833
3751 5 3951 4757 4758 4853 5011
3752 9 3911 3913 3941 4687 5007 5009 5010 5012 5014
3753 5 3859 4730 4762 4853 5016
3754 13 2944 2945 3159 3171 3858 3859 3914 4027 4034 4852 4853 5150 6834
3755 20 3734 3916 3940 4029 4589 4696 4734 4759 4760 4761 4763 4764 4765 4853 5008 5013 5015 5027 5163 6835
3756 12 3781 3917 3918 3919 3920 3921 4035 4036 4860 5022 5025 6837
3757 3 4767 5029 5162
3758 3 4689 4767 5179
3759 8 3861 4037 4856 4857 4858 4859 4861 4862
3760 6 4736 4737 5046 5177 5183 5190
3761 4 3861 4000 4864 4867
3762 2 4003 5056
3763 11 3112 3862 3863 4001 4002 4003 4038 4854 4855 4868 5046
3764 8 4955 4960 4962 5046 5190 6732 6733 6740
3765 8 3932 3998 5101 5102 5207 5209 5210 5211
3766 3 3932 4969 5108
3767 5 3037 3932 3960 3961 5218
3768 4 3962 3963 4842 5221
3769 1 4908
3770 28 3791 3996 4019 4022 4905 4906 4908 4919 4921 4924 4927 4985 4988 5071 5072 5213 5214 5215 5216 6754 6755 6756 6758 6759 6760 6761 6762 6763
3771 7 1224 1268 2719 3052 3468 3733 3828
3772 4 2720 3829 3842 6889
3773 14 2723 2785 2787 2958 3009 3019 6711 6720 6721 6722 6790 6794 6840 6884
3774 4 3157 3935 3936 4998
3775 7 4024 4745 4748 5127 5128 5130 5135
3776 3 3747 5135 6825
3777 3 3747 5002 6825
3778 15 3157 3749 3909 3935 3937 4023 4025 4746 4750 4753 4754 4756 6819 6826 6831
3779 2 3750 6833
3780 2 4730 5016
3781 7 3756 3860 3918 3921 4030 4731 5017
3782 2 4735 4767
3783 2 4016 6737
3784 2 4962 6740
3785 7 3863 4003 4005 4855 5054 5055 5056
3786 7 3694 3708 3712 3820 4706 5201 6751
3787 5 4008 4963 4972 6748 6785
3788 12 4006 4008 4016 4039 4963 5045 5051 5061 5062 5068 6750 6785
3789 3 5203 5208 6787
3790 19 3866 3997 4006 4007 4009 4068 4963 5063 5064 5065 5066 5068 5098 5100 5200 5206 5212 6750 6787
3791 9 3770 3958 3959 4012 4022 4905 4908 4988 5113
3792 4 3962 4013 4842 4869
3793 1 4842
3794 1 4842
3795 2 2753 2812
3796 1 2812
3797 2 2753 2812
3798 4 517 2754 3433 4506
3799 1 3431
3800 1 3435
3801 1 3435
3802 1 3435
3803 6 498 500 3431 3432 3434 3727
3804 1 3435
3805 3 2632 3433 3436
3806 5 3435 3456 3728 3739 6775
3807 3 3737 3739 6775
3808 3 3437 3444 3738
3809 5 2632 3436 3601 4509 5812
3810 13 2753 2755 2762 2813 2917 3384 3387 3389 3429 3437 3444 3454 5790
3811 6 3601 4509 4510 4512 5817 5819
3812 2 3601 4512
3813 11 514 518 519 520 521 525 3456 3739 5818 5825 6725
3814 8 522 3396 3587 4508 4511 4513 5813 6729
3815 6 3102 3552 3553 3867 3874 3897
3816 9 2677 2700 3294 3371 3443 3984 3988 6841 6846
3817 4 3715 3938 3989 3990
3818 3 4956 4971 6748
3819 2 3250 3843
3820 6 3264 3694 3712 3786 3926 6751
3821 2 3843 4099
3822 9 3694 3995 4705 4706 4983 5197 5198 5205 6753
3823 1 4099
3824 2 2678 3268
3825 3 4988 5106 5109
3826 3 2704 3264 3926
3827 12 3960 4043 4949 4958 4969 4973 4986 4987 5090 5103 5110 6741
3828 5 1237 1267 3468 3733 3771
3829 4 3772 3842 6719 6889
3830 2 1232 6719
3831 3 3848 3975 6911
3832 9 3872 3901 4047 4051 4052 6907 6908 6911 6933
3833 4 3968 3975 4061 6911
3834 4 2866 2867 3241 4102
3835 9 2717 3836 3849 3850 4069 4076 4087 4102 4111
3836 6 3835 3975 4076 4087 4111 6913
3837 5 2868 3852 4077 4102 4104
3838 3 2868 4104 4113
3839 3 2868 3246 3853
3840 3 3343 3348 3853
3841 5 28439 28446 28448 28449 28473
3842 6 1214 1232 2720 3772 3829 6719
3843 7 2853 3250 3268 3328 3819 3821 4099
3844 5 2865 3330 3331 4083 4100
3845 7 4082 4083 4110 4116 6897 6921 6924
3846 3 2707 3053 3330
3847 4 4060 4094 4095 6929
3848 10 3331 3831 3901 3975 4075 4095 6911 6926 6929 6932
3849 5 3331 3835 4069 4087 4101
3850 3 3835 4076 4111
3851 2 4076 4111
3852 5 2867 2868 3243 3837 4102
3853 4 3246 3343 3839 3840
3854 7 2945 3857 4728 4738 4741 4742 5118
3855 8 514 525 3392 3456 5825 5831 6725 6726
3856 11 515 516 3393 3438 3447 3448 3457 5823 5831 6728 6776
3857 7 2945 3174 3307 3313 3854 4741 4995
3858 17 2934 2944 3313 3744 3745 3754 3936 4025 4747 4749 4756 4995 4998 5140 6817 6828 6834
3859 7 3753 3754 3914 4034 4730 4853 5154
3860 7 2945 3781 3921 4033 4731 4860 5157
3861 8 2945 3112 3759 3761 4037 4857 4862 4864
3862 2 3112 3763
3863 9 3079 3112 3763 3785 3924 4005 4854 4855 5054
3864 6 2947 3036 3080 3925 4042 5194
3865 3 3038 4044 5195
3866 6 3037 3161 3790 4044 4068 5063
3867 3 3552 3815 3874
3868 3 3552 3742 3874
3869 7 3269 3451 3467 3469 3955 3956 3957
3870 3 2883 2957 3023
3871 2 3901 4049
3872 12 3832 3900 3901 4046 4047 4049 4050 6902 6905 6907 6927 6931
3873 1 4057
3874 4 3552 3815 3867 3868
3875 4 1205 1250 1254 2870
3876 2 2567 3674
3877 3 4049 6925 6956
3878 1 6925
3879 2 3973 6928
3880 3 3973 3974 6928
3881 4 3974 4048 6928 6930
3882 5 3974 4048 4053 6898 6903
3883 4 3902 4053 4062 6936
3884 2 4053 6903
3885 4 3902 4054 4055 6936
3886 4 3902 4054 4062 6936
3887 4 3977 4055 4057 6936
3888 2 4057 6936
3889 2 4091 6915
3890 1 4057
3891 4 4057 4091 6915 6936
3892 1 4057
3893 4 3978 4081 4090 4108
3894 3 3980 4090 4112
3895 4 4081 4092 4107 4109
3896 7 6918 6944 6947 6950 28469 28472 28515
3897 3 3553 3742 3815
3898 2 3553 3742
3899 1 4092
3900 4 3872 6901 6902 6931
3901 12 3832 3848 3871 3872 4049 4051 4084 4086 6911 6922 6923 6932
3902 9 3883 3885 3886 3977 4053 4054 4055 4062 4092
3903 5 4074 4114 6939 6941 28519
3904 2 6945 28472
3905 4 4058 4059 28472 28517
3906 4 3969 4091 4092 28451
3907 4 4059 28470 28472 28517
3908 3 3950 4535 5126
3909 5 3157 3746 3778 3936 4753
3910 1 3941
3911 15 3752 3941 4536 4567 4572 4587 4588 4659 4663 4664 4665 4687 4699 5139 6832
3912 1 4699
3913 3 3752 4687 5151
3914 4 3754 3859 4034 5150
3915 2 4687 5151
3916 4 3755 4589 5015 5159
3917 1 3756
3918 4 3756 3781 4030 5022
3919 2 3756 5022
3920 1 3756
3921 5 3756 3781 3860 4036 4860
3922 2 4037 4735
3923 5 4037 4735 4766 4768 5030
3924 3 3863 4040 5191
3925 2 3864 4042
3926 3 3264 3820 3826
3927 2 3933 3945
3928 2 5372 6815
3929 6 3941 3950 4184 4532 5116 7114
3930 2 4658 5120
3931 2 3037 4009
3932 11 3032 3037 3765 3766 3767 3943 3960 3998 4020 4969 6786
3933 3 3031 3927 3945
3934 6 3176 3747 3945 4045 4742 4997
3935 6 3157 3743 3774 3778 4746 4998
3936 10 3157 3746 3774 3858 3909 4025 4749 4753 4998 5140
3937 4 3778 4752 4754 6826
3938 10 2702 3817 3953 3986 3989 3990 3991 4578 4693 4978
3939 2 4026 5008
3940 7 3755 3951 4026 4757 4760 4853 5011
3941 27 2942 2943 3031 3158 3747 3752 3910 3911 3929 3945 3947 3948 3949 3950 4015 4184 4203 4204 4534 4536 4739 4751 5003 5005 5007 5122 6824
3942 1 4969
3943 2 3932 4020
3944 5 1300 3952 3987 5372 6795
3945 14 3031 3176 3288 3416 3747 3927 3933 3934 3941 4014 4739 4740 4743 5122
3946 6 3952 4586 4691 4692 5119 6815
3947 1 3941
3948 1 3941
3949 2 3941 4534
3950 8 3908 3929 3941 4532 4533 4535 5120 5126
3951 4 3751 3940 4757 4853
3952 12 2701 3294 3944 3946 3984 3985 3987 3988 4691 4692 5133 5372
3953 4 2702 3938 4693 5137
3954 3 3531 3532 28455
3955 3 3469 3869 3956
3956 10 465 469 715 1256 3451 3463 3469 3869 3955 6710
3957 5 470 3451 3467 3869 6788
3958 2 3791 5113
3959 1 3791
3960 7 3767 3827 3932 4969 5110 5111 5114
3961 1 3767
3962 5 3768 3792 4842 5112 5115
3963 3 3768 4842 5221
3964 9 3033 3038 4065 4839 4840 4841 4842 5219 5220
3965 5 4915 4916 5079 5085 28464
3966 9 4849 4909 4920 5073 5076 5077 5079 28438 28464
3967 5 1187 3983 28393 28442 28443
3968 6 3833 3975 4056 4061 6911 6912
3969 7 3906 3979 4057 4091 4092 4096 4097
3970 3 3981 4074 28451
3971 5 4871 4872 4911 4925 5075
3972 3 3982 4922 4931
3973 3 3879 3880 6928
3974 7 3880 3881 3882 4048 4053 4092 6928
3975 10 3331 3831 3833 3836 3848 3968 4087 4101 6911 6913
3976 6 4063 4092 4112 6934 6935 6937
3977 6 3887 3902 4055 4057 4092 4103
3978 4 3893 4081 4090 4112
3979 4 3969 4057 4092 4103
3980 7 3894 4064 4090 4108 4112 6937 6948
3981 6 3970 4072 4074 28451 28462 28519
3982 5 3972 4913 4922 4926 4931
3983 9 1174 1187 3012 3035 3255 3620 3967 4577 28443
3984 4 3294 3816 3952 3988
3985 6 2701 2702 3294 3297 3299 3952
3986 4 2702 3299 3938 3989
3987 4 3944 3952 3988 6795
3988 4 3816 3952 3984 3987
3989 6 2703 3299 3715 3817 3938 3986
3990 8 3691 3715 3817 3938 4580 4694 4695 4978
3991 3 3938 4693 4978
3992 3 3691 4695 4978
3993 1 3691
3994 2 3691 4978
3995 11 3694 3822 4700 4703 4704 4705 4977 4979 4991 4993 4994
3996 3 3770 4985 6754
3997 4 3790 4009 5200 6787
3998 4 3765 3932 5207 6786
3999 1 4864
4000 8 3761 4863 4864 4866 4867 5035 5037 5041
4001 3 3763 4038 5046
4002 1 3763
4003 5 3762 3763 3785 4855 5056
4004 5 4955 4962 5062 6738 6740
4005 3 3785 3863 5054
4006 4 3788 3790 5068 6750
4007 2 3790 5200
4008 4 3787 3788 4963 6785
4009 7 3037 3161 3790 3931 3997 4068 6787
4010 1 4044
4011 3 3038 4044 4067
4012 3 3791 4870 4908
4013 2 3792 4869
4014 3 3945 4743 5122
4015 5 3747 3941 4743 4751 5122
4016 6 3783 3788 5043 5045 5062 6737
4017 2 4744 4998
4018 5 3744 4744 4747 4998 6817
4019 6 3770 4965 4968 4984 6756 6758
4020 5 3032 3037 3162 3932 3943
4021 1 4870
4022 3 3770 3791 4908
4023 5 3778 4750 5129 5131 6826
4024 3 3775 5130 5135
4025 7 3778 3858 3936 4753 4756 5140 6828
4026 4 3939 3940 4760 5008
4027 6 3750 3754 4758 4853 6833 6834
4028 2 3734 4853
4029 3 3734 3755 4853
4030 5 3781 3918 5017 5020 5022
4031 8 3734 4762 4853 5016 5018 5019 5023 6836
4032 1 5157
4033 3 2945 3860 5157
4034 8 2945 3754 3859 3914 5150 5154 5156 5160
4035 4 3756 4860 5025 5026
4036 3 3756 3921 4860
4037 11 3759 3861 3922 3923 4735 4861 4862 4864 5030 5031 5034
4038 11 3735 3763 4001 4737 4865 4868 5038 5039 5040 5042 5046
4039 3 3788 5045 5047
4040 2 3924 5191
4041 1 5192
4042 4 3864 3925 5192 5194
4043 3 3827 4987 5090
4044 9 3037 3038 3865 3866 4010 4011 4066 5193 5195
4045 4 3176 3934 4728 4742
4046 2 3872 6931
4047 2 3832 3872
4048 5 3881 3882 3974 6898 6930
4049 6 3871 3872 3877 3901 6925 6927
4050 2 3872 6905
4051 3 3832 3901 6911
4052 2 3832 6907
4053 8 3882 3883 3884 3902 3974 4092 6903 6936
4054 4 3885 3886 3902 6936
4055 5 3885 3887 3902 3977 6936
4056 3 3968 6911 6912
4057 14 3873 3887 3888 3890 3891 3892 3969 3977 3979 4091 4096 4097 4103 6936
4058 2 3905 28472
4059 4 3905 3907 28472 28517
4060 6 3331 3346 3847 4083 4094 4095
4061 3 3833 3968 6911
4062 4 3883 3886 3902 6936
4063 3 3976 4092 4112
4064 2 3980 6948
4065 3 3033 3038 3964
4066 2 3037 4044
4067 4 3037 3038 4011 5219
4068 4 3161 3790 3866 4009
4069 5 2707 2717 3331 3835 3849
4070 1 4111
4071 2 4115 4120
4072 2 3981 28519
4073 5 4092 4109 28432 28451 28468
4074 9 3903 3970 3981 4091 4114 6915 6939 28451 28519
4075 3 3331 3848 4095
4076 6 3835 3836 3850 3851 4087 4111
4077 4 3837 4102 4104 4111
4078 1 4104
4079 2 4111 4126
4080 3 4104 4121 4125
4081 9 3893 3895 3978 4092 4107 4108 4109 4112 6953
4082 2 3845 4116
4083 9 3331 3844 3845 4060 4093 4094 4100 4116 6924
4084 2 3901 6923
4085 6 3251 3329 3332 3345 4098 4117
4086 1 3901
4087 6 3835 3836 3849 3975 4076 4101
4088 2 4121 4125
4089 3 4115 4127 28473
4090 6 3893 3894 3978 3980 4108 4112
4091 10 3889 3891 3906 3969 4057 4074 4097 6915 6936 28451
4092 18 3895 3899 3902 3906 3969 3974 3976 3977 3979 4053 4063 4073 4081 4103 4109 4112 6934 28451
4093 2 3331 4083
4094 5 3847 4060 4083 6924 6929
4095 8 2706 3331 3346 3847 3848 4060 4075 6929
4096 2 3969 4057
4097 3 3969 4057 4091
4098 1 4085
4099 6 3328 3338 3344 3821 3823 3843
4100 3 3331 3844 4083
4101 4 3331 3849 3975 4087
4102 11 2717 2866 2867 3240 3241 3834 3835 3837 3852 4077 4111
4103 4 3977 3979 4057 4092
4104 8 2868 3837 3838 4077 4078 4080 4113 4121
4105 3 4113 4121 4122
4106 2 2868 4113
4107 2 3895 4081
4108 7 3893 3980 4081 4090 6916 6948 6953
4109 8 3895 4073 4081 4092 6919 6953 6955 28468
4110 1 3845
4111 17 3835 3836 3850 3851 4070 4076 4077 4079 4102 4118 4119 4124 4126 4128 6913 6914 6938
4112 9 3894 3976 3978 3980 4063 4081 4090 4092 6937
4113 7 2868 3838 4104 4105 4106 4121 4122
4114 3 3903 4074 28519
4115 12 4071 4089 4120 4123 4127 6943 6946 6949 6951 6952 28473 28519
4116 3 3845 4082 4083
4117 2 3332 4085
4118 1 4111
4119 3 4111 4128 6938
4120 3 4071 4115 6940
4121 6 4080 4088 4104 4105 4113 4125
4122 2 4105 4113
4123 2 4115 28473
4124 3 4111 6914 6938
4125 3 4080 4088 4121
4126 2 4079 4111
4127 2 4089 4115
4128 3 4111 4119 6938
4129 10 1290 1291 3356 3406 4146 5289 5290 5321 5405 7056
4130 2 5298 5338
4131 5 4155 4173 5298 5338 5423
4132 1 4176
4133 5 4160 4176 4197 5246 7096
4134 3 4159 5249 7096
4135 4 4161 4204 5432 7096
4136 17 3361 3362 3412 4163 4201 4202 4364 5345 5346 5347 5348 5430 5431 6981 6982 7032 7160
4137 9 3362 4163 5276 5352 5356 5439 5453 7032 7033
4138 9 3362 4165 4180 5264 5354 5355 5441 5455 7033
4139 9 3364 3413 5265 5268 5312 5313 5314 5443 7037
4140 10 3363 3364 4168 4183 4367 5271 5314 5400 6991 6994
4141 9 3365 3414 3417 4369 5400 6991 6994 6996 6997
4142 2 3031 4204
4143 10 1279 2650 3151 5280 5281 5315 5316 5317 7156 7162
4144 6 1282 1286 5377 5411 7013 7122
4145 4 1292 5322 5419 7017
4146 9 1291 4129 5231 5323 5324 5418 7018 7057 7084
4147 5 1292 5322 5327 7019 7059
4148 9 1292 4201 5296 5297 5332 5389 5420 5421 7020
4149 4 4171 4187 5235 5236
4150 2 4188 6969
4151 5 4191 5299 5338 6970 7058
4152 3 4189 5237 5240
4153 1 4173
4154 2 4193 5240
4155 9 4131 4173 4187 5242 5298 5338 6971 6972 7130
4156 7 4175 4176 4199 5338 5340 6976 7110
4157 5 1295 1296 6974 6976 6979
4158 5 4176 4199 6980 7023 7092
4159 12 1297 3359 3360 4134 4197 4204 5246 5249 5401 5426 7095 7096
4160 5 1298 4133 4176 5394 7096
4161 10 4135 4178 4204 5254 5258 5307 5432 7029 7096 7097
4162 9 1298 4176 4179 5253 5255 5257 5357 5395 5402
4163 5 3362 4136 4137 4364 7032
4164 2 5272 5353
4165 4 4138 4180 5264 7037
4166 2 3031 5273
4167 5 5258 5272 5365 5437 7029
4168 12 1299 4140 4181 4182 5268 5271 5359 5443 5445 6968 7037 7142
4169 3 4184 7043 7147
4170 9 3356 3357 3407 5290 7088 7104 7128 7129 7165
4171 1 4149
4172 4 4187 5331 5388 7105
4173 7 4131 4153 4155 5423 6971 7150 7166
4174 7 1294 2664 4193 5239 5241 5391 6973
4175 4 4156 4199 7110 7157
4176 19 1298 4132 4133 4156 4158 4160 4162 4197 4199 4200 5341 5357 5395 5429 6976 6977 7023 7154 7158
4177 2 5357 7112
4178 7 1298 4161 5254 5307 5394 7096 7097
4179 2 4162 5357
4180 5 3362 4138 4165 4365 7037
4181 2 4168 5268
4182 3 4168 5271 5443
4183 2 3364 4140
4184 12 3929 3941 4169 4203 4204 5365 5370 6993 7043 7114 7146 7147
4185 5 2650 5373 5374 7003 7006
4186 10 1287 1288 5230 5403 5405 5414 5416 5417 7082 7124
4187 9 4149 4155 4172 5235 5236 5331 7090 7105 7130
4188 2 4150 5240
4189 6 4152 4273 4293 5237 5240 5329
4190 2 5300 6970
4191 11 4151 5232 5299 5326 5328 5330 5333 5335 6970 7058 7060
4192 1 5300
4193 6 2664 4154 4174 4273 5240 5241
4194 3 5300 5339 7110
4195 6 7091 7106 7107 7108 7109 7110
4196 6 1295 6976 6979 7151 7152 7153
4197 9 1297 4133 4159 4176 5246 5401 5426 6979 7154
4198 7 5243 5302 5336 7024 7025 7065 7094
4199 8 4156 4158 4175 4176 6980 7023 7092 7094
4200 7 4176 5341 5342 5357 5393 7112 7158
4201 44 636 1292 1293 2663 2665 2880 3030 3155 3281 3362 4136 4148 4247 5238 5244 5245 5247 5248 5250 5251 5288 5291 5292 5293 5303 5304 5305 5334 5343 5344 5381 5382 5384 5387 5389 5421 5422 5424 5425 5427 5430 5448 7022 7025
4202 2 3361 4136
4203 2 3941 4184
4204 19 2954 3031 3360 3941 4135 4142 4159 4161 4184 5258 5273 5365 5432 5434 5435 5437 6995 7095 7096
4205 4 93 1371 1588 1645
4206 21 30 36 40 47 51 66 95 96 97 100 102 109 147 148 154 1589 1592 1610 1647 4207 4209
4207 13 51 102 111 1595 1613 1616 1625 1626 1629 1649 4206 4210 4211
4208 4 1683 1941 2123 5778
4209 6 45 66 104 146 147 4206
4210 3 1626 1649 4207
4211 5 1616 1629 1965 2118 4207
4212 1 5751
4213 2 2281 2398
4214 3 2401 5751 5755
4215 3 2232 2408 5758
4216 10 1772 2233 2281 2399 2402 2404 2405 2406 5754 5757
4217 5 2232 2403 2408 5755 5758
4218 2 2233 2406
4219 5 2233 2235 2308 2406 4231
4220 2 2234 2408
4221 2 2235 2407
4222 3 2234 2369 2409
4223 2 2234 2408
4224 2 2235 2407
4225 2 2235 2407
4226 2 1999 2408
4227 1 2408
4228 1 2351
4229 1 2114
4230 2 2114 5750
4231 4 2114 2235 2308 4219
4232 1 944
4233 6 942 943 4239 4251 6254 6263
4234 6 4235 4238 4249 4252 6256 6312
4235 5 4234 4249 4251 6310 6312
4236 1 6312
4237 1 6312
4238 6 3379 3404 4234 4249 4250 4252
4239 4 4233 4251 6263 6312
4240 7 378 2645 2650 3114 3143 6428 6432
4241 3 378 2648 3143
4242 5 379 632 2649 3060 3061
4243 3 3118 6446 6450
4244 4 2650 3150 3151 4265
4245 7 3065 3067 3115 3117 4301 4303 6445
4246 5 2651 2659 2877 3405 4346
4247 5 2663 3155 3281 4201 4312
4248 4 3404 4252 4502 6253
4249 5 4234 4235 4238 4250 4251
4250 6 641 942 3379 4238 4249 4251
4251 6 942 4233 4235 4239 4249 4250
4252 8 3404 4234 4238 4248 6238 6253 6256 6311
4253 2 3620 4278
4254 2 4279 4295
4255 2 2650 6433
4256 2 2650 6433
4257 1 2650
4258 2 2643 6439
4259 1 2650
4260 6 2645 3142 3274 6407 6427 6437
4261 3 2650 6409 6438
4262 4 2650 6409 6410 6438
4263 1 6411
4264 4 2650 3146 6410 7115
4265 8 3150 3151 4244 4302 5315 7078 7162 7163
4266 1 4303
4267 1 3029
4268 6 286 382 634 2652 3070 3072
4269 5 633 2658 3153 4307 5404
4270 2 2663 3030
4271 3 2662 4311 6429
4272 2 3357 6430
4273 6 2664 3282 4189 4193 4293 5240
4274 3 3020 3620 4277
4275 5 2613 3034 3620 4279 4287
4276 4 2613 3620 4278 4287
4277 3 3020 3620 4274
4278 5 3620 4253 4276 4286 4287
4279 7 3034 3620 4254 4275 4287 4294 4295
4280 6 2591 2882 2885 4281 4283 28458
4281 5 2590 2591 3110 4280 28458
4282 3 2882 4283 4313
4283 6 2882 2885 4280 4282 4285 4313
4284 5 2607 2846 2885 2931 4313
4285 3 2885 4283 4313
4286 2 3620 4278
4287 5 2613 4275 4276 4278 4279
4288 1 3278
4289 3 633 3069 4307
4290 6 633 635 2658 3153 5447 6457
4291 5 636 5286 5287 5387 5447
4292 7 2661 2879 3198 4309 4310 6424 6458
4293 4 2664 3154 4189 4273
4294 1 4279
4295 2 4254 4279
4296 4 371 2643 3141 6439
4297 1 2650
4298 1 2650
4299 1 2650
4300 2 2650 3150
4301 2 3067 4245
4302 7 3064 3150 4265 7004 7118 7120 7163
4303 7 3065 3117 3405 4245 4266 5222 7005
4304 3 2045 2159 3225
4305 2 3029 3068
4306 5 2876 3068 3152 4362 6452
4307 6 633 3069 4269 4289 5377 5404
4308 5 2660 2662 3076 6421 6459
4309 4 2661 4292 6420 6458
4310 3 4292 6424 6458
4311 5 2662 4271 6422 6429 6459
4312 2 3155 4247
4313 6 2607 2885 4282 4283 4284 4285
4314 1 2872
4315 3 3305 4323 6769
4316 2 2597 3549
4317 3 3536 3542 3543
4318 5 3510 3512 3524 4887 6344
4319 3 2599 2607 3524
4320 2 2578 2599
4321 4 4771 6242 6272 6767
4322 3 3305 3311 4327
4323 4 3305 4315 4327 6769
4324 8 2797 4326 4328 4329 4712 4770 4877 6769
4325 2 3304 4877
4326 3 2797 4324 4328
4327 10 3305 3311 4322 4323 4347 4769 4771 6767 6768 6769
4328 5 2797 2827 4324 4326 4877
4329 5 2797 3305 4324 4770 6769
4330 4 3474 3481 3503 4339
4331 1 2953
4332 7 2953 3472 3486 3487 3488 3503 4880
4333 4 2953 3473 3491 4880
4334 2 3500 4878
4335 2 2953 3491
4336 8 2930 3196 3492 3505 4341 4343 4885 4945
4337 3 3505 4625 4885
4338 5 2941 3464 3505 4888 4939
4339 7 2953 3481 3484 3486 3501 3503 4330
4340 2 3491 4880
4341 5 2930 4336 4352 4944 4945
4342 2 3503 4878
4343 4 3505 4336 4624 4885
4344 7 1154 1167 4628 4888 4889 4891 4940
4345 6 1167 1175 3464 4888 4889 4940
4346 4 2659 3356 3405 4246
4347 4 4327 4771 6768 6769
4348 3 662 3483 4505
4349 2 4622 4880
4350 2 4622 4880
4351 5 3491 4622 4796 4881 4944
4352 6 4341 4881 4885 4935 4944 4945
4353 8 4620 4622 4626 4719 4794 4795 4881 6283
4354 2 4626 4804
4355 5 4626 4724 4885 4888 4939
4356 8 3509 3515 3529 4641 4825 4826 4898 6297
4357 5 4832 4834 6302 6359 6365
4358 7 1148 1186 4833 4834 4989 6361 6366
4359 4 1188 4834 6366 6369
4360 3 6306 6365 6367
4361 8 1188 4837 6306 6308 6370 6371 28393 28498
4362 12 1281 1282 3029 3068 3279 3280 4306 5225 5375 5377 6452 7008
4363 1 3361
4364 5 3361 3362 3412 4136 4163
4365 2 3362 4180
4366 3 3362 3413 5265
4367 2 3364 4140
4368 1 3364
4369 3 3365 3414 4141
4370 4 3365 3367 3414 3417
4371 5 2618 4405 4430 4444 4448
4372 5 4425 4426 4427 4443 4444
4373 1 4428
4374 6 4399 4400 4424 4430 4439 4454
4375 1 4439
4376 2 4415 4439
4377 3 4401 4421 4439
4378 1 3580
4379 1 4439
4380 1 4439
4381 2 4434 4439
4382 1 4439
4383 1 4439
4384 1 3580
4385 2 4436 4439
4386 1 4439
4387 1 3580
4388 1 3580
4389 2 4439 5820
4390 2 4439 5820
4391 1 5835
4392 17 743 744 747 3580 3581 4402 4418 4421 4423 4435 4437 4438 4439 5820 5830 5832 5835
4393 2 747 5841
4394 3 4404 4414 4439
4395 6 4411 4413 4430 4445 4446 4448
4396 2 4410 4439
4397 2 4410 4439
4398 2 4410 4439
4399 3 4374 4439 4454
4400 5 4374 4410 4424 4430 4439
4401 2 4377 4439
4402 2 4392 4439
4403 1 4439
4404 2 4394 4439
4405 3 2618 2833 4371
4406 3 4440 4444 5776
4407 1 4444
4408 1 4439
4409 3 2625 2690 4439
4410 8 2619 2857 4396 4397 4398 4400 4430 4439
4411 2 4395 4430
4412 1 4430
4413 2 4395 4430
4414 2 4394 4439
4415 3 4376 4433 4439
4416 1 4439
4417 1 4439
4418 2 4392 4439
4419 1 4439
4420 1 4439
4421 5 4377 4392 4435 4437 4439
4422 1 4439
4423 2 4392 4439
4424 2 4374 4400
4425 1 4372
4426 3 4372 4442 4443
4427 2 4372 4443
4428 2 4373 4448
4429 1 4448
4430 16 2618 2857 4371 4374 4395 4400 4410 4411 4412 4413 4445 4446 4448 4450 4454 5793
4431 2 4454 5798
4432 2 4454 5798
4433 1 4415
4434 1 4381
4435 2 4392 4421
4436 1 4385
4437 2 4392 4421
4438 1 4392
4439 115 742 746 753 754 755 756 776 808 809 2619 2625 2690 2858 3580 4374 4375 4376 4377 4379 4380 4381 4382 4383 4385 4386 4389 4390 4392 4394 4396 4397 4398 4399 4400 4401 4402 4403 4404 4408 4409 4410 4414 4415 4416 4417 4418 4419 4420 4421 4422 4423 4447 4449 4451 4454 4458 4460 4461 4462 5625 5791 5798 5799 5800 5801 5803 5805 5808 5810 5815 5820 5836 5838 5848 5849 5850 5851 5852 5854 5855 5856 5857 5858 5859 5860 5861 5862 5864 5866 5868 5872 5874 5877 5880 5882 5883 5884 5885 5886 5887 5888 5889 5890 5893 5896 5903 5917 6068 6070 6073 6074 6075 6076 6077 6078
4440 2 4406 5776
4441 1 4486
4442 1 4426
4443 3 4372 4426 4427
4444 6 4371 4372 4406 4407 5774 5776
4445 2 4395 4430
4446 2 4395 4430
4447 1 4439
4448 5 4371 4395 4428 4429 4430
4449 1 4439
4450 1 4430
4451 1 4439
4452 1 3583
4453 1 3583
4454 7 4374 4399 4430 4431 4432 4439 5798
4455 1 3583
4456 2 3577 3583
4457 1 3583
4458 8 2625 2858 3580 3583 4439 5794 5797 5802
4459 2 5807 6078
4460 3 4439 5807 6078
4461 1 4439
4462 3 4439 5810 6078
4463 2 5810 6078
4464 8 4486 4488 5600 5601 5837 6065 6066 6071
4465 1 6078
4466 1 6078
4467 1 5917
4468 1 6078
4469 1 5917
4470 2 5846 5853
4471 2 760 5901
4472 1 5623
4473 3 5616 5618 5623
4474 7 5610 5611 5613 5614 5616 5619 5622
4475 1 5879
4476 1 5894
4477 2 756 5624
4478 1 5917
4479 13 760 5845 5853 5863 5867 5869 5870 5871 5873 5876 5879 5891 5901
4480 3 5895 5914 6049
4481 1 5917
4482 2 5892 5901
4483 1 5917
4484 1 5917
4485 6 760 811 5881 5901 5905 5906
4486 2 4441 4464
4487 1 5600
4488 2 4464 5600
4489 1 929
4490 2 4497 4498
4491 1 4499
4492 1 929
4493 14 892 913 914 915 916 927 928 929 4495 4496 4497 4498 6092 6093
4494 1 893
4495 8 890 891 914 926 4493 6090 6091 6092
4496 2 4493 4499
4497 3 4490 4493 4498
4498 3 4490 4493 4497
4499 3 4491 4496 6094
4500 6 1315 1322 1459 1470 1520 28384
4501 16 629 630 642 643 647 662 725 726 4503 4504 4505 4523 6251 6269 6270 6314
4502 7 3233 3404 4248 6239 6240 6253 6313
4503 7 707 725 2742 3381 4501 4522 6314
4504 3 643 4501 4523
4505 12 662 726 3184 3191 3483 3499 4348 4501 4601 4602 4976 6251
4506 3 3433 3798 5804
4507 3 3433 5804 5806
4508 1 3814
4509 4 3601 3809 3811 5817
4510 3 3811 5817 5819
4511 1 3814
4512 3 3601 3811 3812
4513 2 3587 3814
4514 6 1155 1156 1177 3397 3466 4636
4515 6 1179 2225 4526 4581 4821 4897
4516 7 3612 4528 4573 4583 4584 4709 6350
4517 3 1199 2611 3618
4518 3 1197 3618 4593
4519 3 1161 1198 3618
4520 2 1170 1180
4521 6 1146 1162 1163 1184 1199 4575
4522 6 2742 3234 4503 6258 6260 6314
4523 3 643 4501 4504
4524 7 522 523 524 526 3396 3740 6730
4525 4 1177 1195 4819 6347
4526 12 1157 1179 2225 2226 2586 3611 3612 4515 4573 4707 4709 6350
4527 2 4709 6350
4528 4 4516 4583 4584 4709
4529 2 3618 6353
4530 6 1143 1161 1182 1199 2611 3618
4531 2 1182 1199
4532 11 3929 3950 4585 5116 5117 5120 6813 6814 6816 6875 6876
4533 6 3950 4658 5120 5126 6818 6877
4534 3 3941 3949 6824
4535 6 3908 3950 4661 5125 5126 6823
4536 6 3911 3941 4592 4662 5139 6824
4537 2 4663 6832
4538 3 4666 6796 6883
4539 1 4666
4540 2 4666 6805
4541 4 4666 4667 6807 6855
4542 3 4670 5141 5143
4543 2 4676 6810
4544 1 4668
4545 2 4699 5153
4546 5 4668 4670 5146 5148 6812
4547 3 4676 6810 6859
4548 3 4676 6811 6859
4549 2 4676 6812
4550 2 4670 6812
4551 2 4696 5164
4552 2 4696 5159
4553 6 4660 4668 4669 4676 6809 6812
4554 2 4676 6812
4555 2 4684 6812
4556 2 4678 6812
4557 2 4678 6812
4558 2 4684 5169
4559 4 4679 4689 5166 5171
4560 3 4689 5171 5175
4561 7 4597 4678 4683 4684 5169 5185 6812
4562 4 4681 4684 5168 5181
4563 2 4690 5190
4564 1 4950
4565 9 4685 4690 4736 5173 5174 5176 5178 5180 5190
4566 2 4690 5190
4567 3 3911 4659 6832
4568 2 4666 6807
4569 4 4676 6808 6810 6859
4570 2 4684 6812
4571 5 4672 4696 4765 5163 5164
4572 19 3911 4665 4666 4670 4671 4673 4680 4684 4688 4699 5143 5152 5153 5155 5158 5161 5168 6804 6812
4573 4 3612 4516 4526 6350
4574 2 2611 3618
4575 4 1162 1199 4521 6354
4576 4 1174 1200 4591 6354
4577 3 1174 3620 3983
4578 2 3938 4693
4579 4 4693 5138 6852 6853
4580 2 3990 4978
4581 5 1179 4515 4708 4821 4897
4582 2 1179 1196
4583 3 4516 4528 4709
4584 3 4516 4528 4709
4585 3 4532 6814 6876
4586 5 3946 4692 5119 6847 6848
4587 2 3911 4687
4588 4 3911 4686 4699 5147
4589 4 3755 3916 4696 5159
4590 6 1156 1177 1194 4636 4815 4894
4591 6 1164 1174 1187 1200 1202 4576
4592 4 4536 4662 5139 6827
4593 7 1169 1185 1197 1198 3618 4518 6353
4594 3 1160 1172 1185
4595 3 4676 4698 6859
4596 2 4676 6812
4597 2 4561 6812
4598 4 4674 4682 6812 6861
4599 3 2220 4771 6274
4600 3 2220 4712 6276
4601 2 4505 4976
4602 2 4505 4976
4603 1 4775
4604 3 4775 4878 4933
4605 2 4777 4850
4606 3 4715 4780 4850
4607 2 4777 4850
4608 1 4850
4609 2 4850 4975
4610 11 4710 4713 4772 4773 4779 4781 4976 6251 6319 6329 6331
4611 2 4622 4850
4612 9 4715 4780 4782 4850 4851 4976 6277 6331 6333
4613 2 4878 6334
4614 5 4716 4717 6278 6333 6335
4615 2 4718 4789
4616 4 4717 6278 6279 6335
4617 2 6279 6335
4618 1 6335
4619 5 3564 4791 4797 6280 6336
4620 3 4353 4719 4794
4621 5 3510 4799 4882 6282 6338
4622 32 4349 4350 4351 4353 4611 4716 4719 4720 4721 4782 4783 4784 4785 4786 4787 4788 4789 4790 4792 4793 4794 4795 4796 4850 4851 4880 4881 6281 6334 6335 6337 6339
4623 4 4723 4803 4885 4935
4624 2 4343 4885
4625 2 4337 4885
4626 28 4353 4354 4355 4722 4723 4724 4798 4800 4801 4802 4803 4804 4805 4806 4807 4808 4881 4883 4885 4888 4934 4935 4936 6283 6286 6341 6342 6343
4627 2 4888 4936
4628 6 4344 4808 4809 4888 4891 6345
4629 4 3512 3524 4890 6285
4630 3 4811 4891 6345
4631 1 4810
4632 8 3213 3522 3524 3525 4810 4893 6287 6346
4633 6 4811 4813 6286 6289 6345 6351
4634 1 6292
4635 1 6351
4636 11 1155 1156 1168 4514 4590 4813 4815 4816 4818 4894 6351
4637 11 3509 3513 3517 3523 3527 4814 4817 4820 4895 6294 6348
4638 12 2225 4727 4818 4819 4822 4823 4894 4937 4938 6298 6347 6351
4639 5 1196 4708 4824 4897 4938
4640 3 4727 4938 6298
4641 3 4356 4826 6299
4642 3 4938 6298 6300
4643 2 4938 6300
4644 1 3518
4645 3 3518 3529 4941
4646 3 4832 4899 6359
4647 11 1181 1196 4709 4824 4827 4828 4829 4830 4938 6300 6355
4648 3 6300 6301 6355
4649 3 1160 4899 6359
4650 2 3529 6356
4651 6 3529 3530 3534 6303 6360 6362
4652 1 3530
4653 4 3530 3531 4836 4838
4654 4 6372 28393 28481 28498
4655 4 1152 1190 6373 28481
4656 6 3531 28453 28454 28455 28496 28497
4657 4 4682 6812 6863 6866
4658 4 3930 4533 5120 6877
4659 4 3911 4567 4664 6832
4660 3 4553 4669 6812
4661 6 4535 5125 6820 6823 6878 6879
4662 7 4536 4592 6821 6822 6824 6827 6880
4663 6 3911 4537 5139 6827 6832 6880
4664 3 3911 4659 6832
4665 2 3911 4572
4666 18 4538 4539 4540 4541 4568 4572 5143 6796 6797 6799 6800 6801 6802 6804 6805 6807 6855 6883
4667 2 4541 6807
4668 6 4544 4546 4553 5148 6809 6812
4669 3 4553 4660 6812
4670 9 4542 4546 4550 4572 5141 5142 5143 5144 6812
4671 2 4572 6812
4672 3 4571 4765 5163
4673 1 4572
4674 2 4598 6861
4675 1 6812
4676 16 4543 4547 4548 4549 4553 4554 4569 4595 4596 6806 6808 6809 6810 6811 6812 6859
4677 1 6812
4678 4 4556 4557 4561 6812
4679 2 4559 5171
4680 6 4572 5161 5167 5168 5170 5181
4681 3 4562 5168 5181
4682 4 4598 4657 6812 6863
4683 3 4561 5185 6812
4684 12 4555 4558 4561 4562 4570 4572 5168 5169 5172 5181 5185 6812
4685 3 4565 5173 5180
4686 3 4588 5145 5147
4687 6 3752 3911 3913 3915 4587 5151
4688 1 4572
4689 10 3758 4559 4560 4767 5162 5165 5166 5171 5175 5179
4690 5 4563 4565 4566 4736 5190
4691 4 3946 3952 5372 6815
4692 7 3946 3952 4586 5132 5133 6849 6850
4693 11 3938 3953 3991 4578 4579 4978 5134 5137 5138 6852 6881
4694 2 3990 4978
4695 4 3691 3990 3992 4978
4696 8 3755 4551 4552 4571 4589 4765 5159 5164
4697 3 4979 4991 6858
4698 2 4595 6859
4699 9 3911 3912 4545 4572 4588 5147 5149 5152 5153
4700 2 3995 4991
4701 2 6845 6868
4702 2 4991 6869
4703 5 3995 4982 4991 4992 4993
4704 3 3995 4993 6784
4705 4 3822 3995 4983 4994
4706 10 3694 3786 3822 5196 5197 5199 5201 5204 6751 6752
4707 2 1157 4526
4708 5 1179 1196 4581 4639 4897
4709 13 1158 1179 1181 1196 3612 4516 4526 4527 4528 4583 4584 4647 6350
4710 2 4610 6251
4711 2 4850 4976
4712 8 2220 4324 4600 4771 4778 4877 6276 6769
4713 1 4610
4714 3 3560 4778 4877
4715 5 4606 4612 4780 4850 4976
4716 5 4614 4622 4784 6333 6335
4717 4 4614 4616 6278 6335
4718 2 4615 4789
4719 5 4353 4620 4622 4792 4794
4720 2 4622 6339
4721 2 4622 6339
4722 2 4626 4883
4723 4 4623 4626 4803 4885
4724 3 4355 4626 4806
4725 1 2224
4726 11 1168 1175 1176 2224 2589 2600 2606 3352 3465 3466 3607
4727 5 4638 4640 4823 4938 6298
4728 5 3176 3854 4045 4738 4742
4729 2 3750 5011
4730 4 3753 3780 3859 5016
4731 2 3781 3860
4732 2 3734 5023
4733 3 3734 5021 5024
4734 2 3755 5027
4735 6 3782 3922 3923 4037 4767 5028
4736 6 3760 4565 4690 5177 5178 5190
4737 6 3735 3760 4038 5033 5046 5183
4738 4 2945 3176 3854 4728
4739 2 3941 3945
4740 2 3747 3945
4741 6 3854 3857 4995 4996 4997 5118
4742 6 3854 3934 4045 4728 4997 5118
4743 5 3747 3945 4014 4015 5122
4744 4 4017 4018 4998 6817
4745 3 3775 5127 5128
4746 5 3743 3778 3935 5124 6819
4747 4 3744 3858 4018 4998
4748 5 3747 3775 5121 5123 5135
4749 3 3858 3936 4998
4750 4 3778 4023 5129 6819
4751 3 3747 3941 4015
4752 2 3937 6826
4753 5 3746 3778 3909 3936 4025
4754 7 3748 3749 3778 3937 5001 6826 6829
4755 3 3748 5006 6829
4756 6 3778 3858 4025 6828 6831 6834
4757 4 3751 3940 3951 5011
4758 5 3750 3751 4027 4853 5011
4759 1 3755
4760 5 3755 3940 4026 5008 6835
4761 1 3755
4762 4 3753 4031 4853 5016
4763 3 3734 3755 5021
4764 1 3755
4765 5 3755 4571 4672 4696 5163
4766 1 3923
4767 9 3757 3758 3782 4689 4735 5029 5032 5162 5179
4768 3 3923 5030 5032
4769 2 4327 6768
4770 3 4324 4329 6769
4771 14 2220 4321 4327 4347 4599 4712 6246 6272 6273 6274 6275 6767 6768 6769
4772 1 4610
4773 2 4610 6329
4774 1 4850
4775 6 4603 4604 4850 4878 4933 4974
4776 3 4850 4878 4974
4777 3 4605 4607 4850
4778 7 2220 3560 4712 4714 4877 6276 6330
4779 2 4610 6331
4780 4 4606 4612 4715 4850
4781 2 4610 6331
4782 4 4612 4622 4850 4851
4783 1 4622
4784 4 4622 4716 4851 6333
4785 1 4622
4786 1 4622
4787 1 4622
4788 3 4622 4880 6334
4789 3 4615 4622 4718
4790 1 4622
4791 3 3564 4619 6336
4792 2 4622 4719
4793 1 4622
4794 4 4353 4620 4622 4719
4795 3 4353 4622 4881
4796 4 3491 4351 4622 4880
4797 4 3510 3564 4619 4882
4798 1 4626
4799 4 4621 4882 6280 6338
4800 1 4626
4801 1 4626
4802 3 4626 4883 4935
4803 4 4623 4626 4723 4935
4804 2 4354 4626
4805 3 4626 6283 6341
4806 2 4626 4724
4807 2 4626 6343
4808 5 4626 4628 4888 6286 6345
4809 3 4628 4891 6345
4810 5 3524 4631 4632 4892 4893
4811 5 1168 4630 4633 4891 6345
4812 2 3525 6287
4813 3 4633 4636 6351
4814 2 4637 6348
4815 4 4590 4636 4818 4894
4816 2 4636 6351
4817 2 4637 6348
4818 5 4636 4638 4815 4894 6351
4819 8 1157 1195 2225 4525 4638 4896 6347 6349
4820 6 3216 3528 4637 4895 6295 6352
4821 4 2225 4515 4581 4897
4822 3 4638 4937 6351
4823 2 4638 4727
4824 4 1196 4639 4647 4938
4825 6 3509 3514 3528 4356 6297 6352
4826 5 3529 4356 4641 4898 6299
4827 3 4647 4938 6300
4828 2 4647 6300
4829 2 4647 6300
4830 3 4647 6300 6355
4831 2 3529 4941
4832 9 1145 1185 2230 4357 4646 4899 6357 6358 6359
4833 3 1186 4358 6361
4834 11 1186 2230 4357 4358 4359 6306 6361 6365 6366 6368 6369
4835 4 4990 6306 6369 6371
4836 3 3519 3530 4653
4837 6 1151 1189 4361 6370 28393 28498
4838 10 3530 3531 3556 4653 4901 4902 4903 4904 6305 28497
4839 1 3964
4840 1 3964
4841 3 3033 3324 3964
4842 9 3768 3792 3793 3794 3962 3963 3964 4869 4870
4843 1 4849
4844 2 4845 4871
4845 2 4844 4871
4846 1 2949
4847 1 2949
4848 1 2949
4849 5 2949 3966 4843 4909 28438
4850 21 4605 4606 4607 4608 4609 4611 4612 4622 4711 4715 4774 4775 4776 4777 4780 4782 4878 4974 4975 4976 6334
4851 5 4612 4622 4782 4784 6333
4852 3 3159 3171 3754
4853 14 3734 3751 3753 3754 3755 3859 3940 3951 4027 4028 4029 4031 4758 4762
4854 3 3112 3763 3863
4855 4 3763 3785 3863 4003
4856 1 3759
4857 2 3759 3861
4858 1 3759
4859 1 3759
4860 5 3756 3860 3921 4035 4036
4861 2 3759 4037
4862 3 3759 3861 4037
4863 2 4000 5035
4864 6 3761 3861 3999 4000 4037 5034
4865 2 4038 5038
4866 1 4000
4867 2 3761 4000
4868 2 3763 4038
4869 3 3792 4013 4842
4870 6 4012 4021 4842 4908 4923 4926
4871 7 3971 4844 4845 4907 4925 5074 5075
4872 9 3971 4910 4911 4912 4914 4925 5078 5080 5081
4873 2 4930 4932
4874 1 4931
4875 3 4916 5085 5086
4876 6 4914 4917 4932 5084 5087 5089
4877 11 2798 2827 3304 3560 3561 4324 4325 4328 4712 4714 4778
4878 17 3123 3191 3192 3500 3503 4334 4342 4604 4613 4775 4776 4850 4933 4974 4975 4976 6334
4879 3 3503 4942 6334
4880 13 2953 3488 3491 4332 4333 4340 4349 4350 4622 4788 4796 4943 6334
4881 9 4351 4352 4353 4622 4626 4795 4934 4935 4944
4882 4 3510 4621 4797 4799
4883 4 4626 4722 4802 4935
4884 2 3510 6340
4885 15 3505 4336 4337 4343 4352 4355 4623 4624 4625 4626 4723 4935 4939 4945 4946
4886 2 3510 6344
4887 3 3512 4318 6344
4888 12 3464 4338 4344 4345 4355 4626 4627 4628 4808 4936 4939 4940
4889 4 1167 4344 4345 4940
4890 2 3524 4629
4891 8 1154 1168 4344 4628 4630 4809 4811 6345
4892 2 3524 4810
4893 4 3213 3524 4632 4810
4894 8 1177 1194 4590 4636 4638 4815 4818 6347
4895 5 3216 3509 3528 4637 4820
4896 2 2225 4819
4897 6 2225 4515 4581 4639 4708 4821
4898 3 3529 4356 4826
4899 7 1145 1160 1183 4646 4649 4832 6359
4900 1 3530
4901 3 3530 3556 4838
4902 3 3530 3556 4838
4903 2 3530 4838
4904 2 3530 4838
4905 3 3770 3791 4988
4906 3 3770 4919 5071
4907 1 4871
4908 12 3769 3770 3791 4012 4022 4870 4918 4922 4923 4924 4926 5071
4909 3 3966 4849 5073
4910 2 4872 4925
4911 3 3971 4872 5078
4912 1 4872
4913 3 3982 4926 4931
4914 5 4872 4876 4932 5081 5083
4915 3 3965 5085 28464
4916 5 3965 4875 5082 5085 5086
4917 2 4876 5089
4918 1 4908
4919 2 3770 4906
4920 3 3966 5073 5076
4921 2 3770 4927
4922 7 1142 3972 3982 4908 4926 4928 4931
4923 2 4870 4908
4924 3 3770 4908 5071
4925 4 3971 4871 4872 4910
4926 5 3982 4870 4908 4913 4922
4927 4 3770 4921 5216 6763
4928 2 1142 4922
4929 2 1142 6764
4930 1 4873
4931 7 1142 3972 3982 4874 4913 4922 5088
4932 4 4873 4876 4914 5087
4933 3 4604 4775 4878
4934 2 4626 4881
4935 9 4352 4623 4626 4802 4803 4881 4883 4885 4946
4936 3 4626 4627 4888
4937 2 4638 4822
4938 11 4638 4639 4640 4642 4643 4647 4727 4824 4827 6298 6300
4939 5 3505 4338 4355 4885 4888
4940 4 4344 4345 4888 4889
4941 3 3529 4645 4831
4942 2 4879 6334
4943 3 3488 4880 6334
4944 7 2930 3491 4341 4351 4352 4881 4945
4945 5 4336 4341 4352 4885 4944
4946 2 4885 4935
4947 4 4950 4955 4960 5184
4948 3 4955 4981 6736
4949 10 3827 4958 4987 5067 5069 5070 5090 6734 6735 6739
4950 5 4564 4947 4960 5182 5184
4951 4 4971 5048 5052 6736
4952 2 4987 6870
4953 1 4987
4954 1 4987
4955 17 3764 4004 4947 4948 4960 4962 4971 4980 4981 5048 5062 5184 5186 5187 5188 6736 6785
4956 2 3818 4971
4957 1 4987
4958 5 3827 4949 4970 5067 6739
4959 1 4987
4960 7 3764 4947 4950 4955 5046 5182 5190
4961 1 4987
4962 5 3764 3784 4004 4955 6740
4963 7 3787 3788 3790 4008 5095 5098 6750
4964 2 4987 5105
4965 1 4019
4966 3 4985 5104 5107
4967 2 4987 6757
4968 2 4019 6758
4969 9 3766 3827 3932 3942 3960 4973 5108 6747 6749
4970 7 4958 5049 5050 5053 5059 5060 6739
4971 9 3818 4951 4955 4956 5048 5052 5057 5058 6748
4972 2 3787 6748
4973 9 3827 4969 6741 6742 6743 6744 6745 6746 6747
4974 4 4775 4776 4850 4878
4975 4 4609 4850 4878 6334
4976 12 3191 4505 4601 4602 4610 4612 4711 4715 4850 4878 6251 6331
4977 1 3995
4978 12 3691 3938 3990 3991 3992 3994 4580 4693 4694 4695 6854 6857
4979 5 3995 4697 4991 6856 6858
4980 2 4955 5186
4981 3 4948 4955 6868
4982 3 4703 4992 4993
4983 3 3822 4705 6753
4984 1 4019
4985 6 3770 3996 4966 5094 5096 5104
4986 2 3827 5110
4987 22 3827 4043 4949 4952 4953 4954 4957 4959 4961 4964 4967 5090 5091 5092 5093 5097 5099 5103 5105 6757 6870 6871
4988 7 3770 3791 3825 4905 5106 5109 5113
4989 8 1149 1150 1186 4358 6363 6364 6366 28393
4990 4 1188 4835 6369 6371
4991 13 3995 4697 4700 4702 4703 4979 6842 6844 6860 6862 6864 6865 6869
4992 2 4703 4982
4993 5 3995 4703 4704 4982 6784
4994 2 3995 4705
4995 5 3313 3857 3858 4741 6817
4996 1 4741
4997 4 3934 4741 4742 5118
4998 10 3774 3858 3935 3936 4017 4018 4744 4747 4749 6817
4999 2 5136 6826
5000 2 5135 6825
5001 3 3748 4754 6826
5002 3 3747 3777 6825
5003 2 3747 3941
5004 1 3748
5005 1 3941
5006 3 3749 4755 6829
5007 2 3752 3941
5008 4 3755 3939 4026 4760
5009 1 3752
5010 1 3752
5011 6 3750 3751 3940 4729 4757 4758
5012 1 3752
5013 1 3755
5014 1 3752
5015 2 3755 3916
5016 5 3753 3780 4031 4730 4762
5017 2 3781 4030
5018 1 4031
5019 2 4031 6836
5020 1 4030
5021 3 3734 4733 4763
5022 5 3756 3918 3919 4030 6837
5023 4 3734 4031 4732 6836
5024 2 3734 4733
5025 3 3756 4035 6837
5026 1 4035
5027 2 3755 4734
5028 1 4735
5029 2 3757 4767
5030 3 3923 4037 4768
5031 1 4037
5032 2 4767 4768
5033 3 3735 4737 5183
5034 2 4037 4864
5035 2 4000 4863
5036 1 3735
5037 1 4000
5038 2 4038 4865
5039 2 3735 4038
5040 1 4038
5041 1 4000
5042 1 4038
5043 2 4016 6737
5044 1 6737
5045 3 3788 4016 4039
5046 9 3760 3763 3764 4001 4038 4737 4960 5190 6732
5047 1 4039
5048 4 4951 4955 4971 6736
5049 2 4970 6739
5050 1 4970
5051 1 3788
5052 3 4951 4971 6736
5053 1 4970
5054 3 3785 3863 4005
5055 1 3785
5056 3 3762 3785 4003
5057 1 4971
5058 1 4971
5059 1 4970
5060 1 4970
5061 1 3788
5062 7 3788 4004 4016 4955 6737 6738 6785
5063 2 3790 3866
5064 1 3790
5065 1 3790
5066 1 3790
5067 2 4949 4958
5068 3 3788 3790 4006
5069 1 4949
5070 1 4949
5071 4 3770 4906 4908 4924
5072 1 3770
5073 3 3966 4909 4920
5074 1 4871
5075 2 3971 4871
5076 2 3966 4920
5077 1 3966
5078 2 4872 4911
5079 3 3965 3966 28464
5080 1 4872
5081 2 4872 4914
5082 1 4916
5083 1 4914
5084 1 4876
5085 7 3965 4875 4915 4916 28464 28467 28482
5086 2 4875 4916
5087 2 4876 4932
5088 4 1142 1153 4931 5217
5089 2 4876 4917
5090 4 3827 4043 4949 4987
5091 1 4987
5092 1 4987
5093 1 4987
5094 1 4985
5095 1 4963
5096 1 4985
5097 1 4987
5098 2 3790 4963
5099 1 4987
5100 2 3790 5212
5101 2 3765 5211
5102 1 3765
5103 2 3827 4987
5104 2 4966 4985
5105 2 4964 4987
5106 2 3825 4988
5107 1 4966
5108 2 3766 4969
5109 2 3825 4988
5110 3 3827 3960 4986
5111 1 3960
5112 1 3962
5113 3 3791 3958 4988
5114 1 3960
5115 1 3962
5116 4 3929 4532 6875 7114
5117 2 4532 6814
5118 4 3854 4741 4742 4997
5119 2 3946 4586
5120 6 3930 3950 4532 4533 4658 6816
5121 2 3747 4748
5122 5 3941 3945 4014 4015 4743
5123 1 4748
5124 2 4746 6819
5125 3 4535 4661 6878
5126 4 3908 3950 4533 4535
5127 2 3775 4745
5128 2 3775 4745
5129 3 4023 4750 6819
5130 2 3775 4024
5131 2 4023 6826
5132 1 4692
5133 2 3952 4692
5134 1 4693
5135 7 3747 3775 3776 4024 4748 5000 6825
5136 2 4999 6826
5137 2 3953 4693
5138 3 4579 4693 6853
5139 5 3911 4536 4592 4663 6827
5140 3 3858 3936 4025
5141 2 4542 4670
5142 1 4670
5143 5 4542 4572 4666 4670 6805
5144 1 4670
5145 1 4686
5146 1 4546
5147 3 4588 4686 4699
5148 3 4546 4668 6809
5149 1 4699
5150 3 3754 3914 4034
5151 3 3913 3915 4687
5152 2 4572 4699
5153 3 4545 4572 4699
5154 2 3859 4034
5155 1 4572
5156 1 4034
5157 4 2945 3860 4032 4033
5158 1 4572
5159 4 3916 4552 4589 4696
5160 2 2945 4034
5161 2 4572 4680
5162 3 3757 4689 4767
5163 4 3755 4571 4672 4765
5164 3 4551 4571 4696
5165 1 4689
5166 2 4559 4689
5167 1 4680
5168 5 4562 4572 4680 4681 4684
5169 3 4558 4561 4684
5170 1 4680
5171 4 4559 4560 4679 4689
5172 1 4684
5173 2 4565 4685
5174 1 4565
5175 2 4560 4689
5176 1 4565
5177 2 3760 4736
5178 2 4565 4736
5179 3 3758 4689 4767
5180 2 4565 4685
5181 4 4562 4680 4681 4684
5182 2 4950 4960
5183 3 3760 4737 5033
5184 3 4947 4950 4955
5185 4 4561 4683 4684 6812
5186 2 4955 4980
5187 1 4955
5188 1 4955
5189 1 6812
5190 9 3760 3764 4563 4565 4566 4690 4736 4960 5046
5191 2 3924 4040
5192 2 4041 4042
5193 1 4044
5194 2 3864 4042
5195 2 3865 4044
5196 1 4706
5197 2 3822 4706
5198 1 3822
5199 1 4706
5200 4 3790 3997 4007 6787
5201 2 3786 4706
5202 1 6787
5203 2 3789 6787
5204 1 4706
5205 1 3822
5206 1 3790
5207 3 3765 3998 6786
5208 1 3789
5209 1 3765
5210 1 3765
5211 2 3765 5101
5212 2 3790 5100
5213 1 3770
5214 1 3770
5215 1 3770
5216 3 3770 4927 6763
5217 3 1142 1153 5088
5218 2 3037 3767
5219 4 3037 3038 3964 4067
5220 1 3964
5221 2 3768 3963
5222 5 3354 3355 3405 4303 7005
5223 4 1278 1283 3355 7005
5224 2 1283 3355
5225 3 1282 4362 7008
5226 2 1285 7010
5227 1 7010
5228 3 1285 5380 7016
5229 2 5380 7016
5230 2 1287 4186
5231 4 4146 5323 5324 7057
5232 2 4191 7060
5233 1 7060
5234 4 5327 5407 7020 7134
5235 2 4149 4187
5236 2 4149 4187
5237 2 4152 4189
5238 3 4201 5334 7025
5239 2 4174 6973
5240 6 4152 4154 4188 4189 4193 4273
5241 2 4174 4193
5242 2 4155 6972
5243 7 1293 4198 5336 5422 7025 7061 7063
5244 2 4201 5382
5245 4 4201 5382 5424 7064
5246 5 4133 4159 4197 5426 7096
5247 6 4201 5251 5392 5424 5425 5428
5248 3 4201 5303 5427
5249 3 4134 4159 7096
5250 5 4201 5304 5343 5385 7026
5251 9 4201 5247 5384 5425 5427 5428 7026 7069 7071
5252 2 7072 7112
5253 2 4162 5395
5254 5 1298 4161 4178 5307 7029
5255 2 4162 5402
5256 6 5309 5357 5452 7031 7073 7112
5257 3 4162 5402 7030
5258 6 4161 4167 4204 5434 5437 7029
5259 2 5356 6990
5260 1 7100
5261 2 5356 6990
5262 3 5441 5455 7037
5263 2 5356 6989
5264 4 4138 4165 5455 7037
5265 5 3362 3413 4139 4366 7037
5266 2 5359 7037
5267 1 7037
5268 6 4139 4168 4181 5312 5443 7037
5269 2 5359 5445
5270 2 5359 5445
5271 5 4140 4168 4182 5314 5443
5272 8 4164 4167 5353 5363 5365 6967 6992 7029
5273 3 3031 4166 4204
5274 1 5367
5275 3 3120 3368 3420
5276 8 4137 5351 5356 5451 5453 5454 6989 7032
5277 3 5355 5409 6990
5278 1 5355
5279 3 3149 3278 7002
5280 4 4143 5316 5317 7078
5281 6 1279 2650 4143 5374 7156 7164
5282 2 1285 7010
5283 7 1286 1289 1302 5377 5404 5413 7123
5284 3 3356 5403 7015
5285 3 5406 5419 5447
5286 5 1292 4291 5387 5419 5447
5287 4 636 4291 5387 5448
5288 3 4201 5387 5448
5289 2 4129 5321
5290 5 3356 4129 4170 5321 7128
5291 2 4201 5387
5292 1 4201
5293 1 4201
5294 3 1292 5327 5407
5295 3 1292 5407 7020
5296 4 4148 5420 7020 7133
5297 3 4148 5332 5420
5298 4 4130 4131 4155 5338
5299 4 4151 4191 5333 6970
5300 6 4190 4192 4194 5338 6970 7110
5301 1 1296
5302 3 4198 7025 7065
5303 4 4201 5248 5384 5427
5304 4 4201 5250 5384 7026
5305 6 4201 5343 5344 5385 5408 7026
5306 4 5345 5386 5408 5430
5307 4 4161 4178 5254 7097
5308 5 5345 5386 6981 7026 7111
5309 4 5256 5357 6957 7112
5310 6 5348 5349 5350 5433 7032 7074
5311 1 5359
5312 3 4139 5268 5443
5313 2 4139 5443
5314 5 3364 4139 4140 5271 5443
5315 4 3151 4143 4265 7162
5316 4 4143 5280 7078 7162
5317 4 1279 4143 5280 7078
5318 2 1279 7156
5319 2 7010 7103
5320 2 5380 7014
5321 4 4129 5289 5290 7056
5322 5 1292 4145 4147 7017 7019
5323 3 4146 5231 7057
5324 2 4146 5231
5325 1 7134
5326 2 4191 7060
5327 7 1292 4147 5234 5294 5407 7059 7134
5328 1 4191
5329 1 4189
5330 3 4191 7021 7135
5331 5 3154 3358 4172 4187 5388
5332 6 4148 5297 5389 5420 5422 7136
5333 3 4191 5299 6970
5334 4 4201 5238 5381 7025
5335 2 4191 7137
5336 3 4198 5243 5422
5337 3 5423 6971 7150
5338 13 4130 4131 4151 4155 4156 5298 5300 5423 6970 6976 7058 7110 7130
5339 2 4194 7110
5340 2 4156 7110
5341 5 4176 4200 7023 7112 7158
5342 3 4200 5393 7112
5343 4 4201 5250 5305 5385
5344 4 4201 5305 5408 5430
5345 6 4136 5306 5308 5386 5430 6981
5346 2 4136 6982
5347 9 4136 5396 5397 5450 6981 6982 7159 7160 7161
5348 9 4136 5310 5399 5433 6982 6984 7032 7138 7139
5349 3 5310 5433 7074
5350 2 5310 7032
5351 4 5276 5438 5451 7032
5352 2 4137 7033
5353 4 4164 5272 6961 6967
5354 3 4138 5441 5455
5355 9 4138 5277 5278 5409 5440 5441 5442 6990 7033
5356 10 4137 5259 5261 5263 5276 5439 5453 6989 6990 7033
5357 24 4162 4176 4177 4179 4200 5256 5309 5436 5452 6957 6958 6959 6960 6962 6963 6964 6965 6966 6988 7031 7036 7098 7099 7112
5358 3 7037 7075 7113
5359 8 4168 5266 5269 5270 5311 5445 7037 7142
5360 1 5445
5361 1 5445
5362 1 6992
5363 4 5272 6967 6992 7076
5364 1 6992
5365 9 4167 4184 4204 5272 5437 6992 6993 6995 7146
5366 4 5445 7039 7041 7042
5367 3 1299 5274 7047
5368 2 7050 7077
5369 1 7047
5370 5 4184 7045 7101 7114 7147
5371 2 7049 7050
5372 9 1300 3928 3944 3952 4691 6815 7048 7148 7149
5373 2 4185 7006
5374 6 2650 4185 5281 7006 7055 7164
5375 3 1281 1282 4362
5376 4 1284 3356 3405 7010
5377 11 1281 1282 1286 3069 3280 4144 4307 4362 5283 5404 6452
5378 2 1285 7016
5379 2 1288 7016
5380 8 1285 5228 5229 5320 7010 7011 7014 7016
5381 5 4201 5334 7022 7025 7062
5382 7 4201 5244 5245 7022 7025 7062 7064
5383 5 5392 5424 5428 7025 7067
5384 6 4201 5251 5303 5304 5427 7026
5385 4 5250 5305 5343 7026
5386 5 5306 5308 5345 5408 7026
5387 8 1292 4201 4291 5286 5287 5288 5291 5448
5388 5 3358 4172 5331 7090 7105
5389 5 4148 4201 5332 5421 5422
5390 2 1293 5422
5391 5 1294 1296 2664 3359 4174
5392 4 5247 5383 5424 5428
5393 3 4200 5342 7112
5394 4 1298 4160 4178 7096
5395 5 1298 4162 4176 5253 5429
5396 1 5347
5397 2 5347 5450
5398 3 5449 5450 6985
5399 2 5348 6984
5400 4 4140 4141 6991 6994
5401 5 1297 3359 4159 4197 6979
5402 6 1298 4162 5255 5257 7029 7030
5403 9 1287 1288 3356 4186 5284 5414 5417 7012 7015
5404 9 1289 3153 4269 4307 5283 5377 5415 7081 7125
5405 6 1290 1291 4129 4186 5416 5417
5406 7 3153 5285 5419 5447 7081 7085 7126
5407 6 1292 5234 5294 5295 5327 7020
5408 6 5305 5306 5344 5386 5430 7026
5409 3 5277 5355 6990
5410 2 1283 7054
5411 3 1282 4144 7013
5412 2 1285 7010
5413 3 1286 1302 5283
5414 3 1287 4186 5403
5415 2 3153 5404
5416 4 1291 4186 5405 7082
5417 7 1287 1290 3356 3406 4186 5403 5405
5418 1 4146
5419 7 1292 4145 5285 5286 5406 5447 7085
5420 5 4148 5296 5297 5332 7020
5421 3 4148 4201 5389
5422 7 1293 4201 5243 5332 5336 5389 5390
5423 5 4131 4173 5337 5338 7150
5424 7 4201 5245 5247 5383 5392 7025 7064
5425 4 4201 5247 5251 5428
5426 4 1297 4159 4197 5246
5427 5 4201 5248 5251 5303 5384
5428 7 5247 5251 5383 5392 5425 7067 7069
5429 3 1298 4176 5395
5430 6 4136 4201 5306 5344 5345 5408
5431 3 3361 3412 4136
5432 3 4135 4161 4204
5433 4 5310 5348 5349 7074
5434 2 4204 5258
5435 3 2954 3031 4204
5436 2 5357 7098
5437 4 4167 4204 5258 5365
5438 1 5351
5439 2 4137 5356
5440 1 5355
5441 6 4138 5262 5354 5355 5455 7037
5442 2 5355 7037
5443 8 4139 4168 4182 5268 5271 5312 5313 5314
5444 1 1299
5445 10 1299 4168 5269 5270 5359 5360 5361 5366 7039 7142
5446 1 7050
5447 9 636 3153 4290 4291 5285 5286 5406 5419 6457
5448 5 636 4201 5287 5288 5387
5449 2 5398 6985
5450 6 5347 5397 5398 6982 6983 6985
5451 3 5276 5351 7032
5452 3 5256 5357 7031
5453 3 4137 5276 5356
5454 2 5276 6989
5455 6 4138 5262 5264 5354 5441 7037
5456 4 527 532 533 540
5457 1 540
5458 6 540 541 548 5464 6399 6404
5459 1 5467
5460 1 1131
5461 7 87 529 1129 1130 1131 5468 6400
5462 2 578 580
5463 7 528 533 534 540 581 5473 6404
5464 2 548 5458
5465 3 539 558 570
5466 1 1131
5467 6 542 549 559 572 573 5459
5468 3 573 5461 6400
5469 1 1131
5470 1 90
5471 1 90
5472 3 137 28374 28382
5473 3 534 5463 6404
5474 8 2453 2508 2509 2510 5475 28425 28427 28488
5475 2 5474 28425
5476 5 2501 2505 28422 28423 28488
5477 1 5521
5478 1 5526
5479 1 5529
5480 1 5530
5481 1 5533
5482 1 5536
5483 5 877 906 5539 5543 5544
5484 1 5546
5485 1 5549
5486 1 5551
5487 1 5551
5488 1 6012
5489 1 5564
5490 1 5602
5491 2 5604 5607
5492 1 5615
5493 1 5622
5494 1 5622
5495 1 5622
5496 3 5622 5875 5878
5497 2 816 5706
5498 1 5636
5499 1 5636
5500 1 5637
5501 1 5637
5502 1 5637
5503 1 5637
5504 1 5637
5505 2 5637 5708
5506 1 5646
5507 3 5646 5709 5710
5508 1 5711
5509 2 5644 5652
5510 1 5663
5511 1 6009
5512 3 5671 5677 6009
5513 2 5681 5683
5514 1 5691
5515 3 5692 5736 5738
5516 1 5694
5517 1 5695
5518 1 5695
5519 1 5696
5520 1 5521
5521 3 5477 5520 6593
5522 1 932
5523 1 932
5524 1 932
5525 1 932
5526 1 5478
5527 2 934 6598
5528 1 932
5529 1 5479
5530 1 5480
5531 1 934
5532 2 934 1068
5533 1 5481
5534 2 934 1070
5535 1 934
5536 2 934 5482
5537 1 934
5538 1 868
5539 2 868 5483
5540 2 876 906
5541 3 869 876 877
5542 1 876
5543 2 877 5483
5544 2 906 5483
5545 1 906
5546 2 907 5484
5547 2 907 1078
5548 1 907
5549 5 878 907 1060 5485 6608
5550 3 898 1081 6490
5551 3 5486 5487 6493
5552 3 900 6494 6496
5553 1 919
5554 3 899 1083 6496
5555 1 919
5556 2 904 6497
5557 1 919
5558 2 879 919
5559 1 879
5560 1 919
5561 1 904
5562 1 919
5563 2 6012 6014
5564 2 5489 6012
5565 1 919
5566 2 6012 6014
5567 2 1101 1102
5568 2 1102 6011
5569 1 919
5570 1 1102
5571 1 908
5572 2 883 919
5573 1 919
5574 3 908 1086 1102
5575 2 1102 5740
5576 1 919
5577 1 919
5578 1 919
5579 2 919 6013
5580 1 6118
5581 1 6118
5582 2 872 6118
5583 1 872
5584 1 6118
5585 2 940 6525
5586 1 872
5587 2 872 6524
5588 2 940 6164
5589 10 939 6155 6157 6158 6159 6160 6161 6162 6163 6166
5590 1 1029
5591 5 1029 6176 6178 6553 6556
5592 2 971 6179
5593 2 6182 6184
5594 3 971 1030 6183
5595 1 6190
5596 5 955 972 1004 6187 6577
5597 1 6190
5598 1 1004
5599 3 975 1004 6192
5600 3 4464 4487 4488
5601 4 4464 5698 5809 5837
5602 1 5490
5603 1 756
5604 1 5491
5605 1 756
5606 1 756
5607 1 5491
5608 1 5843
5609 1 756
5610 1 4474
5611 1 4474
5612 3 749 751 756
5613 1 4474
5614 1 4474
5615 5 750 752 756 5492 6078
5616 2 4473 4474
5617 1 5703
5618 1 4473
5619 1 4474
5620 1 5865
5621 1 756
5622 15 4474 5493 5494 5495 5496 5699 5700 5701 5702 5703 5704 5843 5847 5865 6078
5623 2 4472 4473
5624 2 756 4477
5625 3 776 4439 6079
5626 2 776 6079
5627 3 759 6080 6081
5628 1 776
5629 2 759 6080
5630 2 759 6083
5631 3 776 6085 6086
5632 3 776 815 842
5633 1 6019
5634 9 772 781 817 820 821 822 842 5705 5706
5635 1 6025
5636 7 823 825 827 5498 5499 5707 6023
5637 8 5500 5501 5502 5503 5504 5505 5708 6025
5638 1 6039
5639 1 6039
5640 2 6036 6044
5641 3 6005 6038 6044
5642 1 6005
5643 2 5998 6041
5644 1 5509
5645 2 6000 6005
5646 6 5506 5507 5709 5710 5958 6040
5647 2 6007 6041
5648 1 6049
5649 1 6049
5650 1 6047
5651 2 5997 6049
5652 2 5509 5713
5653 8 863 5996 5999 6001 6002 6003 6039 6044
5654 1 6049
5655 1 6045
5656 1 6046
5657 1 6049
5658 1 6048
5659 1 6049
5660 2 6047 6051
5661 1 6053
5662 1 6058
5663 2 5510 5714
5664 2 6050 6054
5665 2 5715 5718
5666 1 6058
5667 1 5719
5668 2 5718 6008
5669 1 6058
5670 1 6058
5671 1 5512
5672 1 6049
5673 3 5716 5717 5718
5674 1 5721
5675 1 5725
5676 1 6064
5677 2 5512 5726
5678 1 6058
5679 2 5723 5724
5680 2 5722 5727
5681 1 5513
5682 2 5719 5729
5683 1 5513
5684 2 6062 6063
5685 1 5728
5686 1 5720
5687 1 5732
5688 2 5730 5733
5689 3 5731 5734 5736
5690 3 807 6064 6118
5691 1 5514
5692 2 5515 5738
5693 1 6060
5694 4 5516 5735 5737 5739
5695 2 5517 5518
5696 1 5519
5697 1 893
5698 1 5601
5699 1 5622
5700 2 5622 5847
5701 1 5622
5702 1 5622
5703 2 5617 5622
5704 1 5622
5705 3 772 817 5634
5706 4 772 816 5497 5634
5707 1 5636
5708 2 5505 5637
5709 2 5507 5646
5710 2 5507 5646
5711 1 5508
5712 1 6004
5713 1 5652
5714 1 5663
5715 1 5665
5716 1 5673
5717 1 5673
5718 3 5665 5668 5673
5719 2 5667 5682
5720 1 5686
5721 1 5674
5722 1 5680
5723 1 5679
5724 1 5679
5725 1 5675
5726 1 5677
5727 1 5680
5728 1 5685
5729 1 5682
5730 1 5688
5731 1 5689
5732 1 5687
5733 1 5688
5734 1 5689
5735 1 5694
5736 2 5515 5689
5737 1 5694
5738 2 5515 5692
5739 1 5694
5740 2 1102 5575
5741 1 1102
5742 5 918 921 1102 6013 6509
5743 1 6091
5744 3 31 1642 1995
5745 5 91 123 217 1607 1643
5746 2 1777 1997
5747 1 2114
5748 7 104 127 161 163 246 247 249
5749 7 26 99 263 1777 1964 1997 2115
5750 4 1772 2114 2308 4230
5751 2 4212 4214
5752 3 2281 2398 2399
5753 1 2401
5754 4 2399 2400 2402 4216
5755 4 2401 2403 4214 4217
5756 1 2408
5757 3 2405 2406 4216
5758 4 2232 2408 4215 4217
5759 1 2115
5760 1 2115
5761 3 263 489 2115
5762 5 1777 2115 2116 2310 3423
5763 1 481
5764 3 1938 1944 1999
5765 3 1681 2167 2192
5766 1 489
5767 10 1632 1723 1724 1775 1943 1949 2119 2290 2313 2316
5768 3 2316 2374 2376
5769 4 1775 2293 2316 2414
5770 4 207 439 483 2122
5771 15 196 265 1775 1940 1952 1953 1969 2120 2121 2293 2315 2316 2318 2377 2378
5772 2 442 484
5773 6 1620 1775 1968 2380 2415 2416
5774 1 4444
5775 1 489
5776 3 4406 4440 4444
5777 6 77 80 81 118 1775 2121
5778 5 1683 1941 2004 2914 4208
5779 2 487 489
5780 4 1652 1653 2174 2296
5781 4 276 1954 2123 2381
5782 5 1955 2123 2751 2806 2807
5783 6 1955 1973 2006 2123 2808 2895
5784 1 1973
5785 3 84 267 2383
5786 5 267 1957 1958 1959 2298
5787 3 267 410 500
5788 2 267 2299
5789 18 61 62 338 1686 1973 1974 1975 1976 1977 2007 2008 2009 2124 2128 2178 2355 2382 2813
5790 2 2753 3810
5791 1 4439
5792 5 267 340 410 415 500
5793 1 4430
5794 1 4458
5795 8 267 340 341 412 415 472 2299 3385
5796 1 3583
5797 1 4458
5798 4 4431 4432 4439 4454
5799 1 4439
5800 1 4439
5801 1 4439
5802 1 4458
5803 1 4439
5804 3 3433 4506 4507
5805 2 4439 6078
5806 2 3433 4507
5807 3 4459 4460 6078
5808 1 4439
5809 1 5601
5810 4 4439 4462 4463 6078
5811 1 6078
5812 1 3809
5813 1 3814
5814 2 3584 3599
5815 10 742 808 810 4439 6067 6068 6069 6070 6072 6078
5816 2 3584 3599
5817 3 3811 4509 4510
5818 1 3813
5819 2 3811 4510
5820 4 4389 4390 4392 4439
5821 1 408
5822 1 6098
5823 3 515 3856 6727
5824 1 6101
5825 4 3813 3855 6725 6726
5826 2 760 6099
5827 1 6098
5828 3 327 479 2694
5829 1 6101
5830 1 4392
5831 8 3392 3393 3455 3456 3855 3856 6726 6728
5832 1 4392
5833 1 6101
5834 3 760 6101 6104
5835 2 4391 4392
5836 1 4439
5837 3 4464 5601 6071
5838 1 4439
5839 1 6103
5840 1 760
5841 5 747 748 4393 6100 6103
5842 1 760
5843 3 5608 5622 6078
5844 1 3587
5845 2 760 4479
5846 1 4470
5847 3 5622 5700 6078
5848 1 4439
5849 1 4439
5850 1 4439
5851 1 4439
5852 1 4439
5853 2 4470 4479
5854 1 4439
5855 1 4439
5856 1 4439
5857 1 4439
5858 1 4439
5859 1 4439
5860 1 4439
5861 1 4439
5862 1 4439
5863 1 4479
5864 1 4439
5865 2 5620 5622
5866 1 4439
5867 1 4479
5868 1 4439
5869 1 4479
5870 1 4479
5871 1 4479
5872 1 4439
5873 1 4479
5874 1 4439
5875 1 5496
5876 1 4479
5877 1 4439
5878 1 5496
5879 2 4475 4479
5880 1 4439
5881 2 760 4485
5882 1 4439
5883 1 4439
5884 1 4439
5885 1 4439
5886 1 4439
5887 1 4439
5888 1 4439
5889 1 4439
5890 1 4439
5891 1 4479
5892 1 4482
5893 1 4439
5894 1 4476
5895 2 4480 6049
5896 1 4439
5897 2 760 6134
5898 3 757 3587 6135
5899 1 761
5900 1 761
5901 5 760 4471 4479 4482 4485
5902 1 776
5903 2 776 4439
5904 2 760 5905
5905 3 760 4485 5904
5906 1 4485
5907 2 760 6106
5908 2 760 6125
5909 2 758 6111
5910 2 769 6111
5911 4 814 832 6135 6146
5912 2 760 6125
5913 3 814 836 6146
5914 6 761 767 4480 6016 6017 6049
5915 1 776
5916 1 776
5917 8 776 4439 4467 4469 4478 4481 4483 4484
5918 1 776
5919 1 6049
5920 1 6049
5921 1 6111
5922 1 6049
5923 3 794 5929 6111
5924 1 6049
5925 1 6049
5926 1 6049
5927 1 6049
5928 1 6049
5929 2 5923 6111
5930 2 828 842
5931 1 3587
5932 4 6022 6035 6112 6144
5933 1 842
5934 1 842
5935 1 3587
5936 1 6025
5937 1 842
5938 14 763 765 770 771 773 775 776 782 785 786 787 824 842 6018
5939 1 3588
5940 1 3588
5941 1 842
5942 1 6024
5943 1 6049
5944 1 6049
5945 1 842
5946 1 842
5947 1 842
5948 1 842
5949 1 842
5950 1 6025
5951 1 842
5952 15 766 767 774 777 778 779 780 783 784 788 789 791 792 796 6049
5953 1 842
5954 3 835 840 842
5955 1 842
5956 1 6049
5957 1 842
5958 2 5646 6040
5959 1 842
5960 1 840
5961 1 842
5962 1 842
5963 1 842
5964 1 842
5965 1 840
5966 2 839 840
5967 1 842
5968 1 842
5969 1 840
5970 1 840
5971 1 840
5972 1 842
5973 2 841 6040
5974 1 840
5975 1 6049
5976 1 840
5977 1 842
5978 1 839
5979 3 802 6035 6127
5980 6 837 838 842 6024 6027 6030
5981 1 863
5982 1 863
5983 1 6049
5984 1 863
5985 1 863
5986 1 853
5987 1 863
5988 1 855
5989 3 855 856 6039
5990 4 841 6032 6033 6040
5991 1 6039
5992 6 851 852 853 856 863 6039
5993 1 6049
5994 1 6049
5995 1 6049
5996 1 5653
5997 2 5651 6049
5998 2 5643 6041
5999 1 5653
6000 1 5645
6001 1 5653
6002 1 5653
6003 1 5653
6004 2 5712 6045
6005 4 5641 5642 5645 6044
6006 1 6053
6007 9 850 865 5647 6026 6034 6037 6041 6042 6044
6008 1 5668
6009 2 5511 5512
6010 1 919
6011 2 1102 5568
6012 9 881 903 908 1102 5488 5563 5564 5566 6014
6013 9 909 918 919 921 1086 1102 5579 5742 6015
6014 3 5563 5566 6012
6015 5 918 919 920 6013 6509
6016 1 5914
6017 2 767 5914
6018 4 776 786 842 5938
6019 6 781 818 819 822 842 5633
6020 1 6153
6021 1 6141
6022 1 5932
6023 5 825 826 827 829 5636
6024 3 842 5942 5980
6025 4 5635 5637 5936 5950
6026 2 850 6007
6027 4 837 838 842 5980
6028 1 842
6029 1 842
6030 2 842 5980
6031 1 842
6032 1 5990
6033 1 5990
6034 1 6007
6035 19 802 844 5932 5979 6108 6109 6110 6126 6127 6136 6137 6138 6139 6140 6142 6143 6144 6149 6153
6036 1 5640
6037 2 865 6007
6038 1 5641
6039 11 804 805 855 856 863 5638 5639 5653 5989 5991 5992
6040 5 841 5646 5958 5973 5990
6041 4 5643 5647 5998 6007
6042 1 6007
6043 2 872 6152
6044 22 843 845 846 847 848 849 850 854 857 858 859 860 861 862 863 864 865 5640 5641 5653 6005 6007
6045 2 5655 6004
6046 2 5656 6153
6047 3 5650 5660 6153
6048 2 5658 6153
6049 37 761 767 789 797 798 799 800 834 4480 5648 5649 5651 5654 5657 5659 5672 5895 5914 5919 5920 5922 5924 5925 5926 5927 5928 5943 5944 5952 5956 5975 5983 5993 5994 5995 5997 6111
6050 1 5664
6051 1 5660
6052 2 872 6118
6053 5 806 5661 6006 6151 6153
6054 1 5664
6055 1 6118
6056 1 6118
6057 1 6118
6058 5 5662 5666 5669 5670 5678
6059 2 6118 6128
6060 1 5693
6061 2 6118 6129
6062 1 5684
6063 1 5684
6064 4 807 5676 5690 6118
6065 1 4464
6066 1 4464
6067 2 808 5815
6068 3 742 4439 5815
6069 2 810 5815
6070 3 808 4439 5815
6071 2 4464 5837
6072 2 742 5815
6073 1 4439
6074 1 4439
6075 1 4439
6076 1 4439
6077 1 4439
6078 23 742 746 756 808 809 810 4439 4459 4460 4462 4463 4465 4466 4468 5615 5622 5805 5807 5810 5811 5815 5843 5847
6079 3 776 5625 5626
6080 3 759 5627 5629
6081 2 759 5627
6082 1 776
6083 3 759 815 5630
6084 1 815
6085 5 776 812 813 815 5631
6086 2 776 5631
6087 1 870
6088 6 885 886 889 910 912 923
6089 1 890
6090 7 871 890 891 925 926 4495 6487
6091 3 890 4495 5743
6092 2 4493 4495
6093 1 4493
6094 1 4499
6095 1 3583
6096 1 3583
6097 2 760 3582
6098 3 747 5822 5827
6099 3 760 3582 5826
6100 2 747 5841
6101 5 760 5824 5829 5833 5834
6102 1 3583
6103 2 5839 5841
6104 2 760 5834
6105 1 760
6106 2 760 5907
6107 1 6138
6108 2 6035 6138
6109 1 6035
6110 2 6035 6136
6111 16 758 761 762 764 769 793 794 795 5909 5910 5921 5923 5929 6049 6141 6153
6112 2 5932 6144
6113 2 6223 6224
6114 2 6232 6233
6115 1 6235
6116 1 6207
6117 1 6206
6118 15 807 872 5580 5581 5582 5584 5690 6052 6055 6056 6057 6059 6061 6064 6156
6119 1 6166
6120 1 6174
6121 2 6154 6177
6122 1 6190
6123 1 6190
6124 2 6190 6191
6125 3 760 5908 5912
6126 1 6035
6127 2 5979 6035
6128 1 6059
6129 1 6061
6130 1 760
6131 1 760
6132 1 760
6133 2 760 3584
6134 2 760 5897
6135 6 757 832 3587 5898 5911 6146
6136 2 6035 6110
6137 1 6035
6138 3 6035 6107 6108
6139 1 6035
6140 1 6035
6141 2 6021 6111
6142 1 6035
6143 1 6035
6144 3 5932 6035 6112
6145 2 833 897
6146 7 768 814 832 836 5911 5913 6135
6147 1 897
6148 1 836
6149 1 6035
6150 2 801 897
6151 2 806 6053
6152 4 803 872 897 6043
6153 13 764 790 794 806 836 844 6020 6035 6046 6047 6048 6053 6111
6154 2 6121 6177
6155 1 5589
6156 1 6118
6157 1 5589
6158 1 5589
6159 1 5589
6160 1 5589
6161 1 5589
6162 1 5589
6163 1 5589
6164 2 940 5588
6165 2 940 6531
6166 2 5589 6119
6167 1 941
6168 1 941
6169 1 941
6170 1 941
6171 2 941 6530
6172 2 1029 6545
6173 2 941 6544
6174 1 6120
6175 1 1029
6176 1 5591
6177 2 6121 6154
6178 1 5591
6179 2 971 5592
6180 1 971
6181 2 971 6569
6182 1 5593
6183 2 971 5594
6184 1 5593
6185 1 1004
6186 2 973 1004
6187 2 1004 5596
6188 1 974
6189 2 974 1004
6190 5 5595 5597 6122 6123 6124
6191 1 6124
6192 1 5599
6193 1 1004
6194 1 6236
6195 1 6236
6196 1 6236
6197 1 1013
6198 2 1013 6665
6199 2 1013 6236
6200 1 1013
6201 1 1015
6202 2 1015 6674
6203 1 1015
6204 1 1016
6205 2 990 1016
6206 1 6117
6207 3 990 6116 6684
6208 3 979 1008 1124
6209 1 1010
6210 1 1010
6211 3 980 1010 1128
6212 1 1010
6213 1 990
6214 8 979 980 990 1010 1012 1013 1014 1128
6215 3 983 1014 1128
6216 3 983 1014 1033
6217 2 990 1015
6218 4 988 990 1017 6672
6219 1 990
6220 1 1018
6221 4 990 1017 1018 28388
6222 4 1017 6689 6693 28388
6223 1 6113
6224 2 866 6113
6225 1 867
6226 1 977
6227 1 977
6228 1 977
6229 3 976 977 1125
6230 2 979 1013
6231 1 1013
6232 1 6114
6233 1 6114
6234 2 1126 1127
6235 1 6115
6236 5 1013 6194 6195 6196 6199
6237 2 671 702
6238 6 4252 6253 6256 6311 6313 6378
6239 3 4502 6257 6259
6240 4 4502 6261 6313 6390
6241 2 667 671
6242 4 3695 4321 6272 6767
6243 1 6272
6244 2 658 703
6245 6 2796 2937 2950 3311 3695 6767
6246 8 4771 6263 6272 6273 6275 6320 6381 6382
6247 2 6268 6316
6248 2 6271 6316
6249 2 6268 6316
6250 5 6266 6268 6269 6314 6318
6251 12 4501 4505 4610 4710 4976 6267 6269 6270 6271 6318 6319 6328
6252 1 6333
6253 5 4248 4252 4502 6238 6313
6254 1 4233
6255 2 6312 6391
6256 7 4234 4252 6238 6311 6312 6378 6391
6257 1 6239
6258 2 3234 4522
6259 1 6239
6260 2 4522 6314
6261 2 6240 6390
6262 5 667 6320 6322 6381 6389
6263 13 670 944 4233 4239 6246 6312 6320 6374 6375 6376 6378 6382 6392
6264 1 6390
6265 1 6316
6266 2 6250 6314
6267 1 6251
6268 6 6247 6249 6250 6314 6316 6318
6269 5 4501 6250 6251 6314 6318
6270 2 4501 6251
6271 13 6248 6251 6315 6316 6317 6318 6324 6325 6327 6328 6382 6383 6390
6272 5 4321 4771 6242 6243 6246
6273 2 4771 6246
6274 3 2220 4599 4771
6275 3 2220 4771 6246
6276 4 2220 4600 4712 4778
6277 3 4612 6331 6333
6278 4 4614 4616 4717 6333
6279 3 4616 4617 6335
6280 2 4619 4799
6281 3 4622 6337 6339
6282 2 3510 4621
6283 5 4353 4626 4805 6341 6342
6284 1 3512
6285 2 3512 4629
6286 6 4626 4633 4808 6342 6343 6345
6287 4 3525 4632 4812 6346
6288 2 3523 3525
6289 2 4633 6351
6290 1 3523
6291 1 6348
6292 2 4634 6351
6293 1 6348
6294 2 4637 6348
6295 1 4820
6296 1 6351
6297 3 4356 4825 6352
6298 5 4638 4640 4642 4727 4938
6299 4 3529 3685 4641 4826
6300 10 4642 4643 4647 4648 4827 4828 4829 4830 4938 6355
6301 2 4648 6355
6302 2 4357 6359
6303 2 4651 6362
6304 1 6365
6305 3 3530 4838 28497
6306 9 4360 4361 4834 4835 6365 6367 6368 6369 6371
6307 1 28497
6308 2 4361 28498
6309 1 28497
6310 1 4235
6311 3 4252 6238 6256
6312 10 4234 4235 4236 4237 4239 6255 6256 6263 6378 6391
6313 10 4502 6238 6240 6253 6323 6324 6378 6382 6390 6393
6314 8 4501 4503 4522 6250 6260 6266 6268 6269
6315 1 6271
6316 6 6247 6248 6249 6265 6268 6271
6317 1 6271
6318 5 6250 6251 6268 6269 6271
6319 5 4610 6251 6328 6331 6388
6320 6 6246 6262 6263 6381 6389 6392
6321 3 6377 6378 6382
6322 3 667 6262 6381
6323 3 6313 6378 6382
6324 5 6271 6313 6382 6390 6393
6325 2 6271 6382
6326 1 6382
6327 2 6271 6383
6328 8 6251 6271 6319 6383 6384 6385 6386 6387
6329 2 4610 4773
6330 2 2220 4778
6331 8 4610 4612 4779 4781 4976 6277 6319 6388
6332 1 2220
6333 8 4612 4614 4716 4784 4851 6252 6277 6278
6334 12 3488 3503 4613 4622 4788 4850 4878 4879 4880 4942 4943 4975
6335 8 4614 4616 4617 4618 4622 4716 4717 6279
6336 3 3564 4619 4791
6337 2 4622 6281
6338 2 4621 4799
6339 4 4622 4720 4721 6281
6340 2 3510 4884
6341 3 4626 4805 6283
6342 3 4626 6283 6286
6343 3 4626 4807 6286
6344 5 3510 3512 4318 4886 4887
6345 8 4628 4630 4633 4808 4809 4811 4891 6286
6346 3 3525 4632 6287
6347 5 1177 4525 4638 4819 4894
6348 6 4637 4814 4817 6291 6293 6294
6349 4 1157 1178 1195 4819
6350 5 4516 4526 4527 4573 4709
6351 11 4633 4635 4636 4638 4813 4816 4818 4822 6289 6292 6296
6352 4 3528 4820 4825 6297
6353 4 1198 3618 4529 4593
6354 12 1146 1162 1164 1174 1184 1199 1200 1202 2230 3618 4575 4576
6355 5 4647 4648 4830 6300 6301
6356 1 4650
6357 1 4832
6358 1 4832
6359 6 4357 4646 4649 4832 4899 6302
6360 2 3529 4651
6361 4 1186 4358 4833 4834
6362 3 3530 4651 6303
6363 2 4989 28393
6364 3 1150 4989 28393
6365 5 4357 4360 4834 6304 6306
6366 6 1150 1188 4358 4359 4834 4989
6367 2 4360 6306
6368 2 4834 6306
6369 6 1188 4359 4834 4835 4990 6306
6370 3 4361 4837 28393
6371 5 1188 4361 4835 4990 6306
6372 2 4654 28481
6373 5 1152 1190 4655 28480 28481
6374 2 6263 6378
6375 2 6263 6378
6376 2 6263 6378
6377 2 6321 6378
6378 12 6238 6256 6263 6312 6313 6321 6323 6374 6375 6376 6377 6382
6379 1 667
6380 1 667
6381 5 667 6246 6262 6320 6322
6382 10 6246 6263 6271 6313 6321 6323 6324 6325 6326 6378
6383 3 6271 6327 6328
6384 1 6328
6385 1 6328
6386 1 6328
6387 1 6328
6388 2 6319 6331
6389 6 663 666 667 6262 6320 6392
6390 7 6240 6261 6264 6271 6313 6324 6393
6391 3 6255 6256 6312
6392 6 666 670 673 6263 6320 6389
6393 3 6313 6324 6390
6394 2 28375 28499
6395 2 28375 28499
6396 1 28499
6397 1 6404
6398 1 6404
6399 4 540 541 5458 6404
6400 8 87 529 552 560 573 1130 5461 5468
6401 4 87 88 1131 6405
6402 2 88 6405
6403 2 553 6405
6404 11 534 539 540 541 548 5458 5463 5473 6397 6398 6399
6405 15 87 88 89 90 137 138 543 544 552 553 560 564 6401 6402 6403
6406 6 145 545 557 574 28374 28382
6407 5 396 3058 3142 4260 6427
6408 1 3144
6409 4 2650 4261 4262 6438
6410 3 2650 4262 4264
6411 3 4263 6439 7117
6412 2 2655 3074
6413 2 2657 3074
6414 1 2661
6415 1 2661
6416 2 2660 3075
6417 1 2661
6418 1 2660
6419 1 2661
6420 2 2661 4309
6421 2 2660 4308
6422 2 4311 6429
6423 1 6429
6424 4 3198 4292 4310 6430
6425 2 6437 6462
6426 4 2644 2874 6436 6437
6427 10 396 2644 2874 3058 3142 4260 6407 6435 6436 6437
6428 6 2645 2650 4240 6432 6434 6437
6429 5 2662 4271 4311 6422 6423
6430 4 3198 3357 4272 6424
6431 3 2650 3139 6439
6432 2 4240 6428
6433 4 333 2650 4255 4256
6434 7 631 2642 2650 6428 6460 6461 6462
6435 3 396 2874 6427
6436 4 2644 2874 6426 6427
6437 10 2644 2645 2874 3142 4260 6425 6426 6427 6428 6462
6438 3 4261 4262 6409
6439 8 371 2643 3057 3139 4258 4296 6411 6431
6440 1 379
6441 2 379 3063
6442 1 3063
6443 2 3063 3118
6444 2 3064 3150
6445 3 3065 3067 4245
6446 1 4243
6447 4 2648 3059 3064 3150
6448 1 3118
6449 1 3118
6450 7 380 381 2877 3067 3116 3118 4243
6451 3 2045 2652 2878
6452 6 633 3069 3152 4306 4362 5377
6453 1 2655
6454 1 2655
6455 1 2655
6456 1 2656
6457 4 636 2663 4290 5447
6458 3 4292 4309 4310
6459 3 2662 4308 4311
6460 2 2642 6434
6461 2 2642 6434
6462 5 2642 2874 6425 6434 6437
6463 1 1113
6464 1 3634
6465 2 1031 6620
6466 5 1006 1007 1124 6609 6655
6467 4 1005 6618 6620 6648
6468 3 981 1010 1033
6469 3 981 6610 6611
6470 3 981 6612 6672
6471 7 978 982 1011 6613 6619 6621 6662
6472 3 1034 6614 6659
6473 2 6617 6657
6474 1 6617
6475 3 1106 3677 3679
6476 2 1110 3678
6477 2 1017 6617
6478 1 1017
6479 5 930 1035 6615 6616 6625
6480 2 1017 6686
6481 2 6626 28459
6482 2 6688 28386
6483 4 930 992 1035 6625
6484 4 6705 28385 28459 28478
6485 1 28508
6486 2 28389 28512
6487 1 6090
6488 2 1036 2673
6489 3 1036 2673 6628
6490 2 898 5550
6491 3 898 1037 1082
6492 1 1037
6493 1 5551
6494 3 900 1038 5552
6495 1 1038
6496 6 899 900 1090 5552 5554 6629
6497 2 904 5556
6498 1 2673
6499 3 900 1038 1091
6500 2 1039 1040
6501 2 904 1040
6502 2 1043 1107
6503 1 1043
6504 3 902 1094 6630
6505 1 6635
6506 4 884 917 6635 6636
6507 5 904 919 1094 1096 6631
6508 3 884 917 1031
6509 6 905 918 919 920 5742 6015
6510 2 905 919
6511 2 895 969
6512 1 897
6513 1 970
6514 1 897
6515 1 1023
6516 1 1023
6517 5 970 1023 1061 1114 3646
6518 1 1023
6519 5 994 995 1021 1022 1023
6520 1 1023
6521 1 1027
6522 2 996 1027
6523 6 1023 1027 1045 1116 1117 3625
6524 3 872 897 5587
6525 3 940 1027 5585
6526 1 1027
6527 1 1027
6528 1 1027
6529 2 998 1027
6530 3 941 999 6171
6531 4 940 997 1027 6165
6532 2 1000 1027
6533 2 1047 3573
6534 1 1047
6535 2 1048 3573
6536 3 1029 1047 3593
6537 2 1046 1048
6538 5 1001 1025 1027 1029 1117
6539 2 1028 1048
6540 1 963
6541 1 963
6542 1 1029
6543 1 1029
6544 5 941 945 1000 1027 6173
6545 2 1029 6172
6546 4 963 1028 1048 3573
6547 1 1028
6548 2 963 1030
6549 3 956 963 3573
6550 1 1028
6551 2 1002 1028
6552 5 956 962 963 1118 3573
6553 2 1029 5591
6554 1 1030
6555 1 1118
6556 1 5591
6557 1 1030
6558 1 963
6559 1 3595
6560 3 1118 3595 3675
6561 2 971 1030
6562 1 965
6563 1 965
6564 1 965
6565 1 963
6566 2 964 3595
6567 1 965
6568 2 965 1054
6569 2 971 6181
6570 2 963 1030
6571 1 965
6572 3 957 965 3595
6573 2 947 1054
6574 1 1030
6575 1 1030
6576 1 1030
6577 5 955 972 1003 1050 5596
6578 1 3626
6579 1 3626
6580 2 3190 3626
6581 1 3626
6582 1 3627
6583 2 968 3627
6584 1 3627
6585 1 968
6586 5 957 958 1049 3189 3595
6587 3 950 955 1054
6588 2 975 1004
6589 2 968 3627
6590 2 955 1055
6591 1 932
6592 2 932 1063
6593 1 5521
6594 1 932
6595 1 934
6596 1 932
6597 1 934
6598 2 934 5527
6599 3 933 1060 1072
6600 4 873 874 934 1058
6601 1 934
6602 4 875 933 935 1074
6603 1 875
6604 2 906 936
6605 3 935 936 1060
6606 2 1060 1088
6607 1 1060
6608 2 1060 5549
6609 3 1007 6466 6655
6610 2 981 6469
6611 2 981 6469
6612 2 981 6470
6613 2 1011 6471
6614 2 1034 6472
6615 2 1035 6479
6616 2 1035 6479
6617 10 984 989 1017 6473 6474 6477 6657 6658 6661 6672
6618 4 1005 6467 6648 6651
6619 5 982 6471 6646 6649 6650
6620 5 884 1005 1031 6465 6467
6621 4 978 982 1011 6471
6622 2 1105 6663
6623 3 1105 3677 6663
6624 2 1009 6663
6625 3 930 6479 6483
6626 3 6481 6704 28459
6627 1 28503
6628 2 1036 6489
6629 2 900 6496
6630 3 902 1094 6504
6631 3 904 1094 6507
6632 3 882 1005 1095
6633 1 882
6634 1 882
6635 3 884 6505 6506
6636 2 917 6506
6637 1 919
6638 3 1108 3677 6700
6639 2 982 1109
6640 1 1108
6641 1 1108
6642 1 1108
6643 1 1109
6644 1 982
6645 1 982
6646 1 6619
6647 1 982
6648 2 6467 6618
6649 1 6619
6650 2 982 6619
6651 5 1005 1107 2674 6618 6700
6652 1 982
6653 1 1010
6654 1 1109
6655 8 979 1006 1007 1008 1010 1124 6466 6609
6656 3 1104 3677 6702
6657 2 6473 6617
6658 1 6617
6659 3 987 1034 6472
6660 1 1013
6661 1 6617
6662 4 982 1011 1109 6471
6663 10 987 1009 1103 1105 1109 3677 6622 6623 6624 6701
6664 1 1013
6665 2 1013 6198
6666 1 1013
6667 3 990 1013 1015
6668 1 1015
6669 1 1106
6670 2 990 1015
6671 1 1106
6672 10 981 988 990 1014 1017 1032 1033 6218 6470 6617
6673 3 987 1105 3677
6674 2 1015 6202
6675 1 1015
6676 1 990
6677 3 990 1015 1016
6678 4 985 986 992 1106
6679 1 990
6680 1 990
6681 2 992 1035
6682 1 930
6683 1 1017
6684 2 990 6207
6685 1 1017
6686 2 1017 6480
6687 3 990 1018 28491
6688 2 6482 28386
6689 2 1017 6222
6690 1 992
6691 3 991 28386 28494
6692 2 1018 28388
6693 3 6222 28388 28494
6694 1 28388
6695 1 992
6696 1 992
6697 2 1018 28491
6698 1 992
6699 1 28388
6700 6 2516 2674 3676 3677 6638 6651
6701 2 3677 6663
6702 2 3677 6656
6703 5 3629 3630 3677 3678 28428
6704 2 6626 28459
6705 2 6484 28459
6706 1 1272
6707 3 1208 1228 1276
6708 1 1272
6709 6 1209 1229 1230 1241 1271 6872
6710 11 712 1227 1240 1256 1266 3451 3956 6788 6872 6885 6893
6711 3 3773 6790 6884
6712 1 2719
6713 13 719 1224 1231 1236 1237 1245 1258 1267 1268 1273 2719 3458 3468
6714 2 6790 6840
6715 5 6791 6793 6839 6892 6896
6716 2 1205 2909
6717 13 1219 1242 1246 1274 6789 6791 6792 6838 6873 6874 6887 6888 6891
6718 3 1225 6890 6891
6719 12 644 1214 1217 1232 2720 2735 2910 3018 3829 3830 3842 6889
6720 2 3773 6794
6721 1 3773
6722 1 3773
6723 7 728 731 732 739 1247 1249 6892
6724 4 3395 3457 6776 6777
6725 4 514 3813 3855 5825
6726 3 3855 5825 5831
6727 2 515 5823
6728 3 516 3856 5831
6729 2 522 3814
6730 14 524 526 3350 3396 3723 3724 3725 3726 3729 4524 6778 6779 6780 6781
6731 6 3730 3731 3732 6781 6782 6783
6732 2 3764 5046
6733 1 3764
6734 1 4949
6735 1 4949
6736 5 4948 4951 4955 5048 5052
6737 5 3783 4016 5043 5044 5062
6738 2 4004 5062
6739 4 4949 4958 4970 5049
6740 4 3764 3784 4004 4962
6741 2 3827 4973
6742 1 4973
6743 1 4973
6744 1 4973
6745 1 4973
6746 1 4973
6747 2 4969 4973
6748 4 3787 3818 4971 4972
6749 1 4969
6750 4 3788 3790 4006 4963
6751 3 3786 3820 4706
6752 1 4706
6753 2 3822 4983
6754 2 3770 3996
6755 1 3770
6756 2 3770 4019
6757 2 4967 4987
6758 3 3770 4019 4968
6759 1 3770
6760 1 3770
6761 1 3770
6762 1 3770
6763 3 3770 4927 5216
6764 2 1142 4929
6765 1 1142
6766 1 1153
6767 7 3311 3695 4321 4327 4771 6242 6245
6768 4 4327 4347 4769 4771
6769 10 3305 4315 4323 4324 4327 4329 4347 4712 4770 4771
6770 2 3434 3727
6771 2 3434 3738
6772 1 3738
6773 2 3727 3736
6774 1 3738
6775 5 3728 3737 3739 3806 3807
6776 4 515 3457 3856 6724
6777 5 2901 3156 3395 6724 6788
6778 3 526 3396 6730
6779 3 3723 3729 6730
6780 4 3723 3724 3729 6730
6781 8 3396 3724 3725 3726 3729 3730 6730 6731
6782 5 3396 3730 3731 3741 6731
6783 4 3731 3732 3741 6731
6784 2 4704 4993
6785 5 3787 3788 4008 4955 5062
6786 3 3932 3998 5207
6787 7 3789 3790 3997 4009 5200 5202 5203
6788 6 470 3156 3451 3957 6710 6777
6789 8 1238 1246 1274 6717 6838 6839 6894 6895
6790 5 3773 6711 6714 6840 6884
6791 5 6715 6717 6838 6839 6895
6792 4 1242 1274 6717 6888
6793 1 6715
6794 3 3773 6720 6840
6795 2 3944 3987
6796 2 4538 4666
6797 1 4666
6798 1 6832
6799 2 4666 6830
6800 1 4666
6801 1 4666
6802 1 4666
6803 1 6832
6804 2 4572 4666
6805 3 4540 4666 5143
6806 1 4676
6807 5 4541 4568 4666 4667 6855
6808 3 4569 4676 6859
6809 4 4553 4668 4676 5148
6810 5 4543 4547 4569 4676 6859
6811 3 4548 4676 6859
6812 31 4546 4549 4550 4553 4554 4555 4556 4557 4561 4570 4572 4596 4597 4598 4657 4660 4668 4669 4670 4671 4675 4676 4677 4678 4682 4683 4684 5185 5189 6843 6867
6813 3 4532 6875 6876
6814 4 4532 4585 5117 6876
6815 4 3928 3946 4691 5372
6816 2 4532 5120
6817 6 3744 3858 4018 4744 4995 4998
6818 2 4533 6877
6819 5 3778 4746 4750 5124 5129
6820 2 4661 6879
6821 1 4662
6822 2 4662 6880
6823 3 4535 4661 6879
6824 4 3941 4534 4536 4662
6825 6 3747 3776 3777 5000 5002 5135
6826 9 3778 3937 4023 4752 4754 4999 5001 5131 5136
6827 5 4592 4662 4663 5139 6880
6828 3 3858 4025 4756
6829 5 3748 3749 4754 4755 5006
6830 1 6799
6831 2 3778 4756
6832 9 3911 4537 4567 4659 4663 4664 6798 6803 6882
6833 3 3750 3779 4027
6834 4 3754 3858 4027 4756
6835 2 3755 4760
6836 3 4031 5019 5023
6837 3 3756 5022 5025
6838 5 6717 6789 6791 6887 6895
6839 11 1136 1238 1274 6715 6789 6791 6886 6892 6894 6895 6896
6840 4 3773 6714 6790 6794
6841 1 3816
6842 1 4991
6843 2 6812 6867
6844 1 4991
6845 2 4701 6868
6846 1 3816
6847 1 4586
6848 1 4586
6849 1 4692
6850 1 4692
6851 1 6879
6852 2 4579 4693
6853 2 4579 5138
6854 1 4978
6855 4 4541 4666 6807 6883
6856 1 4979
6857 1 4978
6858 2 4697 4979
6859 9 4547 4548 4569 4595 4676 4698 6808 6810 6811
6860 1 4991
6861 2 4598 4674
6862 1 4991
6863 2 4657 4682
6864 1 4991
6865 1 4991
6866 1 4657
6867 2 6812 6843
6868 3 4701 4981 6845
6869 2 4702 4991
6870 2 4952 4987
6871 1 4987
6872 5 1230 1241 6709 6710 6893
6873 1 6717
6874 2 6717 6887
6875 5 4532 5116 6813 7101 7114
6876 4 4532 4585 6813 6814
6877 3 4533 4658 6818
6878 2 4661 5125
6879 4 4661 6820 6823 6851
6880 4 4662 4663 6822 6827
6881 1 4693
6882 1 6832
6883 3 4538 4666 6855
6884 3 3773 6711 6790
6885 6 712 1221 1241 1266 6710 6893
6886 2 1274 6839
6887 3 6717 6838 6874
6888 3 1242 6717 6792
6889 7 644 1217 2720 2735 3772 3829 6719
6890 2 1225 6718
6891 4 1219 1225 6717 6718
6892 7 1249 1269 1274 6715 6723 6839 6896
6893 5 1221 1230 6710 6872 6885
6894 2 6789 6839
6895 4 6789 6791 6838 6839
6896 3 6715 6839 6892
6897 1 3845
6898 3 3882 4048 6930
6899 1 6931
6900 1 6931
6901 2 3900 6931
6902 2 3872 3900
6903 4 3882 3884 4053 6936
6904 1 6936
6905 2 3872 4050
6906 1 6936
6907 3 3832 3872 4052
6908 2 3832 6933
6909 1 6936
6910 1 6936
6911 11 3831 3832 3833 3848 3901 3968 3975 4051 4056 4061 6933
6912 2 3968 4056
6913 3 3836 3975 4111
6914 2 4111 4124
6915 6 3889 3891 4074 4091 6936 6939
6916 3 4108 6948 6953
6917 1 6953
6918 4 3896 6950 28475 28515
6919 2 4109 6953
6920 2 6954 28475
6921 1 3845
6922 1 3901
6923 2 3901 4084
6924 3 3845 4083 4094
6925 4 3877 3878 4049 6956
6926 1 3848
6927 2 3872 4049
6928 5 3879 3880 3881 3973 3974
6929 4 3847 3848 4094 4095
6930 3 3881 4048 6898
6931 6 3872 3900 4046 6899 6900 6901
6932 2 3848 3901
6933 3 3832 6908 6911
6934 2 3976 4092
6935 1 3976
6936 18 3883 3885 3886 3887 3888 3891 4053 4054 4055 4057 4062 4091 6903 6904 6906 6909 6910 6915
6937 3 3976 3980 4112
6938 4 4111 4119 4124 4128
6939 3 3903 4074 6915
6940 1 4120
6941 1 3903
6942 1 28472
6943 1 4115
6944 2 3896 28472
6945 2 3904 28472
6946 1 4115
6947 1 3896
6948 4 3980 4064 4108 6916
6949 1 4115
6950 2 3896 6918
6951 1 4115
6952 1 4115
6953 6 4081 4108 4109 6916 6917 6919
6954 2 6920 28475
6955 2 4109 28468
6956 2 3877 6925
6957 2 5309 5357
6958 1 5357
6959 1 5357
6960 1 5357
6961 1 5353
6962 1 5357
6963 1 5357
6964 1 5357
6965 1 5357
6966 2 5357 7036
6967 3 5272 5353 5363
6968 1 4168
6969 1 4150
6970 7 4151 4190 4191 5299 5300 5333 5338
6971 5 4155 4173 5337 7150 7166
6972 2 4155 5242
6973 3 1294 4174 5239
6974 2 1296 4157
6975 1 7153
6976 8 1295 4156 4157 4176 4196 5338 7151 7152
6977 1 4176
6978 1 7153
6979 7 1295 1296 3359 4157 4196 4197 5401
6980 4 4158 4199 7023 7092
6981 4 4136 5308 5345 5347
6982 7 4136 5346 5347 5348 5450 7160 7161
6983 1 5450
6984 3 5348 5399 7139
6985 3 5398 5449 5450
6986 1 7139
6987 2 7034 7098
6988 3 5357 7098 7099
6989 7 5263 5276 5356 5454 7075 7100 7113
6990 7 5259 5261 5277 5355 5356 5409 7033
6991 5 3363 3414 4140 4141 5400
6992 9 5272 5362 5363 5364 5365 7043 7076 7145 7146
6993 4 4184 5365 7043 7146
6994 3 4140 4141 5400
6995 2 4204 5365
6996 1 4141
6997 2 3417 4141
6998 1 3417
6999 1 7053
7000 2 2650 7053
7001 2 2650 7053
7002 3 3278 5279 7052
7003 2 2650 4185
7004 2 4302 7120
7005 8 1277 1278 1283 3355 4303 5222 5223 7119
7006 4 4185 5373 5374 7055
7007 2 1279 7055
7008 4 1282 4362 5225 7121
7009 1 7055
7010 16 1280 1283 1284 1285 3355 3405 5226 5227 5282 5319 5376 5380 5412 7054 7102 7103
7011 1 5380
7012 2 1288 5403
7013 6 1282 1286 4144 5411 7122 7123
7014 2 5320 5380
7015 3 3356 5284 5403
7016 9 1285 1288 3356 5228 5229 5378 5379 5380 7124
7017 2 4145 5322
7018 1 4146
7019 3 4147 5322 7059
7020 9 1292 4148 5234 5295 5296 5407 5420 7133 7134
7021 1 5330
7022 4 4201 5381 5382 7062
7023 9 4158 4176 4199 5341 6980 7092 7093 7112 7158
7024 1 4198
7025 17 1293 4198 4201 5238 5243 5302 5334 5381 5382 5383 5424 7061 7062 7063 7064 7065 7067
7026 11 5250 5251 5304 5305 5308 5384 5385 5386 5408 7071 7111
7027 1 7111
7028 1 7074
7029 7 1298 4161 4167 5254 5258 5272 5402
7030 2 5257 5402
7031 4 5256 5357 5452 7098
7032 11 4136 4137 4163 5276 5310 5348 5350 5351 5451 7074 7100
7033 7 3362 4137 4138 5352 5355 5356 6990
7034 2 6987 7098
7035 2 7075 7100
7036 3 5357 6966 7099
7037 22 3362 4139 4165 4168 4180 5262 5264 5265 5266 5267 5268 5358 5359 5441 5442 5455 7075 7140 7141 7143 7167 7168
7038 2 7076 7145
7039 3 5366 5445 7144
7040 1 1299
7041 1 5366
7042 1 5366
7043 6 4169 4184 6992 6993 7146 7147
7044 1 7147
7045 1 5370
7046 1 3417
7047 2 5367 5369
7048 2 5372 7148
7049 1 5371
7050 4 5368 5371 5446 7077
7051 3 3368 3415 3419
7052 2 3278 7002
7053 4 2650 6999 7000 7001
7054 3 1283 5410 7010
7055 7 1279 5374 7006 7007 7009 7156 7164
7056 2 4129 5321
7057 3 4146 5231 5323
7058 4 4151 4191 5338 7130
7059 4 4147 5327 7019 7134
7060 4 4191 5232 5233 5326
7061 2 5243 7025
7062 4 5381 5382 7022 7025
7063 3 1293 5243 7025
7064 4 5245 5382 5424 7025
7065 3 4198 5302 7025
7066 1 7112
7067 3 5383 5428 7025
7068 1 7112
7069 2 5251 5428
7070 1 7112
7071 2 5251 7026
7072 2 5252 7112
7073 2 5256 7112
7074 5 5310 5349 5433 7028 7032
7075 6 5358 6989 7035 7037 7100 7113
7076 4 5363 6992 7038 7145
7077 2 5368 7050
7078 7 1279 4265 5280 5316 5317 7162 7163
7079 2 1289 7123
7080 1 7124
7081 4 3153 5404 5406 7125
7082 4 1291 4186 5416 7124
7083 1 1291
7084 2 1291 4146
7085 3 5406 5419 7126
7086 1 7130
7087 3 7127 7128 7165
7088 6 3357 4170 7127 7129 7131 7165
7089 2 3358 7132
7090 5 3358 4187 5388 7105 7130
7091 1 4195
7092 4 4158 4199 6980 7023
7093 1 7023
7094 2 4198 4199
7095 5 2954 3359 3360 4159 4204
7096 11 4133 4134 4135 4159 4160 4161 4178 4204 5246 5249 5394
7097 3 4161 4178 5307
7098 6 5357 5436 6987 6988 7031 7034
7099 3 5357 6988 7036
7100 5 5260 6989 7032 7035 7075
7101 3 5370 6875 7114
7102 3 1280 3355 7010
7103 5 1284 1285 3356 5319 7010
7104 2 4170 7165
7105 4 4172 4187 5388 7090
7106 1 4195
7107 1 4195
7108 1 4195
7109 1 4195
7110 8 4156 4175 4194 4195 5300 5338 5339 5340
7111 3 5308 7026 7027
7112 15 4177 4200 5252 5256 5309 5341 5342 5357 5393 7023 7066 7068 7070 7072 7073
7113 3 5358 6989 7075
7114 6 3929 4184 5116 5370 6875 7101
7115 2 3146 4264
7116 2 2650 3146
7117 1 6411
7118 1 4302
7119 3 1277 1278 7005
7120 3 4302 7004 7163
7121 1 7008
7122 2 4144 7013
7123 5 1286 1289 5283 7013 7079
7124 5 1288 4186 7016 7080 7082
7125 3 1289 5404 7081
7126 2 5406 7085
7127 3 7087 7088 7165
7128 4 4170 5290 7087 7165
7129 3 4170 7088 7165
7130 6 4155 4187 5338 7058 7086 7090
7131 4 3357 3408 3409 7088
7132 3 3358 3410 7089
7133 2 5296 7020
7134 5 5234 5325 5327 7020 7059
7135 1 5330
7136 1 5332
7137 1 5335
7138 1 5348
7139 3 5348 6984 6986
7140 1 7037
7141 3 7037 7167 7168
7142 3 4168 5359 5445
7143 1 7037
7144 1 7039
7145 3 6992 7038 7076
7146 5 4184 5365 6992 6993 7043
7147 5 4169 4184 5370 7043 7044
7148 2 5372 7048
7149 1 5372
7150 5 4173 5337 5423 6971 7166
7151 3 1295 4196 6976
7152 2 4196 6976
7153 3 4196 6975 6978
7154 2 4176 4197
7155 1 1283
7156 6 1279 4143 5281 5318 7055 7164
7157 1 4175
7158 4 4176 4200 5341 7023
7159 1 5347
7160 3 4136 5347 6982
7161 2 5347 6982
7162 5 4143 4265 5315 5316 7078
7163 4 4265 4302 7078 7120
7164 4 5281 5374 7055 7156
7165 7 4170 7087 7088 7104 7127 7128 7129
7166 3 4173 6971 7150
7167 2 7037 7141
7168 2 7037 7141
7169 7 7473 7493 7516 7522 7524 7576 7577
7170 5 7175 7181 7510 7514 7564
7171 6 7177 7180 7182 7507 7544 7556
7172 6 7178 7517 7530 7562 28558 28561
7173 3 7573 7574 28561
7174 3 7470 7579 7580
7175 4 7170 7514 7528 7564
7176 3 7510 7556 7563
7177 6 7171 7180 7182 7556 7559 7561
7178 4 7172 7562 7573 28561
7179 3 7504 7515 7565
7180 3 7171 7177 7182
7181 4 7170 7510 7556 7564
7182 6 7171 7177 7180 7507 7543 7559
7183 4 7476 7506 7574 28561
7184 1 7201
7185 1 28400
7186 2 7201 28400
7187 1 7201
7188 2 7201 7216
7189 2 7201 7238
7190 3 28402 28410 28411
7191 9 7198 7204 7206 7207 7211 7212 7213 7231 28411
7192 5 7198 7207 7214 7231 7256
7193 2 7199 7209
7194 2 7209 7266
7195 2 7199 7209
7196 1 28523
7197 7 7205 7206 7218 7227 7231 7247 7255
7198 12 7191 7192 7204 7207 7219 7220 7228 7229 7256 28402 28411 28413
7199 8 7193 7195 7209 7215 7233 7237 7244 7259
7200 8 7209 7239 7245 7262 7264 28523 28530 28532
7201 9 7184 7186 7187 7188 7189 7216 7238 7240 28400
7202 1 7240
7203 6 7225 7238 7287 28397 28400 28411
7204 4 7191 7198 7211 28411
7205 3 7197 7227 7255
7206 9 7191 7197 7212 7218 7226 7231 7246 7255 28411
7207 5 7191 7192 7198 7213 7231
7208 5 7222 7249 7253 7286 28544
7209 13 7193 7194 7195 7199 7200 7215 7232 7244 7259 7262 7266 7301 28530
7210 3 7222 7235 7254
7211 3 7191 7204 28411
7212 2 7191 7206
7213 3 7191 7207 7231
7214 5 7192 7230 7231 7256 7257
7215 7 7199 7209 7237 7239 7244 7261 7262
7216 3 7188 7201 7240
7217 4 7246 7292 7298 28411
7218 11 7197 7206 7226 7227 7246 7247 7248 7305 7307 7310 7336
7219 5 7198 7256 7286 7348 28413
7220 4 7198 7228 28402 28413
7221 2 7231 7286
7222 9 7208 7210 7235 7249 7253 7254 7281 7320 28539
7223 2 7283 28549
7224 5 7236 7237 7243 28521 28522
7225 5 7203 7238 7267 7287 7351
7226 3 7206 7218 7246
7227 5 7197 7205 7218 7255 7310
7228 2 7198 7220
7229 2 7198 7256
7230 4 7214 7256 7257 7286
7231 18 7191 7192 7197 7206 7207 7213 7214 7221 7249 7255 7257 7258 7275 7276 7277 7286 7316 7320
7232 6 7209 7259 7266 7290 7318 7359
7233 6 7199 7237 7259 7322 7349 7350
7234 5 7242 7252 7282 28542 28554
7235 8 7210 7222 7254 7270 7281 28533 28545 28549
7236 13 7224 7237 7263 7265 7322 7325 7328 7334 7343 7349 7350 28522 28526
7237 9 7199 7215 7224 7233 7236 7239 7243 7261 7350
7238 9 7189 7201 7203 7225 7240 7267 7294 7298 28400
7239 6 7200 7215 7237 7243 7262 7264
7240 7 7201 7202 7216 7238 7296 7297 7298
7241 2 7266 7300
7242 3 7234 7252 28542
7243 6 7224 7237 7239 7264 28521 28523
7244 3 7199 7209 7215
7245 2 7200 7264
7246 10 7206 7217 7218 7226 7272 7292 7298 7305 7335 28411
7247 2 7197 7218
7248 4 7218 7273 7310 7336
7249 6 7208 7222 7231 7277 7286 7320
7250 4 7260 7285 7361 28404
7251 5 7260 28404 28424 28426 28427
7252 6 7234 7242 7271 7282 28537 28542
7253 5 7208 7222 28539 28544 28550
7254 6 7210 7222 7235 28529 28539 28545
7255 8 7197 7205 7206 7227 7231 7310 7316 7330
7256 7 7192 7198 7214 7219 7229 7230 7286
7257 4 7214 7230 7231 7286
7258 2 7231 7276
7259 6 7199 7209 7232 7233 7349 7359
7260 5 7250 7251 7361 28404 28426
7261 2 7215 7237
7262 4 7200 7209 7215 7239
7263 2 7236 7325
7264 5 7200 7239 7243 7245 28523
7265 2 7236 28526
7266 9 7194 7209 7232 7241 7300 7301 7359 7379 7585
7267 5 7225 7238 7298 7351 28411
7268 1 7316
7269 3 7316 7330 7346
7270 9 7235 7278 7279 7280 7281 7291 7331 7340 28549
7271 4 7252 7282 7301 28537
7272 7 7246 7303 7305 7335 7352 7408 7419
7273 10 7248 7295 7299 7304 7306 7308 7310 7336 7352 7353
7274 3 7289 7302 7316
7275 3 7231 7316 7320
7276 3 7231 7258 7320
7277 3 7231 7249 7320
7278 4 7270 7291 7340 7363
7279 2 7270 7340
7280 2 7270 7340
7281 6 7222 7235 7270 7291 7320 7347
7282 3 7234 7252 7271
7283 9 7223 7323 7324 7326 7342 7429 7431 28540 28549
7284 1 7374
7285 6 7250 7348 7361 7374 28401 28404
7286 11 7208 7219 7221 7230 7231 7249 7256 7257 7333 7348 28544
7287 4 7203 7225 7351 28411
7288 7 7309 7310 7312 7329 7330 7354 7441
7289 6 7274 7315 7316 7317 7356 7367
7290 3 7232 7318 7359
7291 6 7270 7278 7281 7320 7363 7368
7292 4 7217 7246 7298 28411
7293 2 7295 7453
7294 2 7238 7298
7295 14 7273 7293 7299 7308 7353 7400 7415 7426 7438 7439 7440 7443 7444 7453
7296 2 7240 7412
7297 4 7240 7406 7410 7584
7298 14 7217 7238 7240 7246 7267 7292 7294 7335 7402 7405 7407 7408 7409 28411
7299 7 7273 7295 7304 7352 7380 7414 7415
7300 8 7241 7266 7359 7379 7401 7404 7415 7418
7301 6 7209 7266 7271 28530 28535 28537
7302 2 7274 7316
7303 2 7272 7352
7304 3 7273 7299 7352
7305 5 7218 7246 7272 7336 7352
7306 1 7273
7307 1 7218
7308 3 7273 7295 7353
7309 2 7288 7441
7310 8 7218 7227 7248 7255 7273 7288 7330 7353
7311 1 7329
7312 5 7288 7329 7330 7362 7365
7313 4 7344 7345 7359 7420
7314 4 7345 7355 7394 7452
7315 2 7289 7356
7316 11 7231 7255 7268 7269 7274 7275 7289 7302 7330 7346 7367
7317 1 7289
7318 3 7232 7290 7359
7319 1 7359
7320 9 7222 7231 7249 7275 7276 7277 7281 7291 7347
7321 2 7349 7359
7322 4 7233 7236 7349 7350
7323 1 7283
7324 2 7283 28549
7325 3 7236 7263 7349
7326 5 7283 7396 7429 7433 28540
7327 3 28524 28533 28549
7328 6 7236 7334 7397 28526 28536 28538
7329 8 7288 7311 7312 7365 7370 7441 7442 7447
7330 8 7255 7269 7288 7310 7312 7316 7346 7362
7331 2 7270 7340
7332 2 7342 7462
7333 1 7286
7334 4 7236 7328 7343 7397
7335 4 7246 7272 7298 7408
7336 5 7218 7248 7273 7305 7352
7337 3 7345 7359 7394
7338 5 7357 7358 7363 7364 7461
7339 2 7359 7395
7340 7 7270 7278 7279 7280 7331 7358 7363
7341 3 7349 7397 7424
7342 5 7283 7332 7431 7462 28549
7343 5 7236 7334 7349 7397 7424
7344 5 7313 7359 7401 7418 7420
7345 8 7313 7314 7337 7355 7359 7394 7417 7420
7346 5 7269 7316 7330 7362 7367
7347 2 7281 7320
7348 6 7219 7285 7286 7374 28401 28413
7349 13 7233 7236 7259 7321 7322 7325 7341 7343 7359 7397 7423 7424 7430
7350 4 7233 7236 7237 7322
7351 4 7225 7267 7287 28411
7352 9 7272 7273 7299 7303 7304 7305 7336 7414 7419
7353 5 7273 7295 7308 7310 7439
7354 2 7288 7441
7355 5 7314 7345 7417 7448 7452
7356 2 7289 7315
7357 4 7338 7363 7364 7369
7358 3 7338 7340 7363
7359 20 7232 7259 7266 7290 7300 7313 7318 7319 7321 7337 7339 7344 7345 7349 7373 7394 7395 7418 7423 7430
7360 1 28554
7361 5 7250 7260 7285 7374 28426
7362 6 7312 7330 7346 7365 7367 7456
7363 10 7278 7291 7338 7340 7357 7358 7368 7369 7371 7457
7364 7 7338 7357 7369 7371 7372 7460 7461
7365 6 7312 7329 7362 7370 7454 7456
7366 3 7371 7455 7460
7367 5 7289 7316 7346 7362 7456
7368 3 7291 7363 7457
7369 4 7357 7363 7364 7371
7370 5 7329 7365 7442 7450 7454
7371 7 7363 7364 7366 7369 7455 7457 7460
7372 4 7364 7460 7461 7463
7373 5 7359 7394 7395 7421 7452
7374 5 7284 7285 7348 7361 28426
7375 2 7464 7479
7376 4 7382 7387 7390 7549
7377 2 7380 7415
7378 2 7380 7413
7379 5 7266 7300 7415 7435 7585
7380 5 7299 7377 7378 7414 7415
7381 2 7386 7415
7382 5 7376 7387 7390 7508 7548
7383 2 7474 28554
7384 2 7410 7436
7385 1 7415
7386 2 7381 7415
7387 4 7376 7382 7548 7549
7388 3 7392 7474 28554
7389 2 28542 28554
7390 2 7376 7382
7391 1 28554
7392 2 7388 28554
7393 1 28554
7394 6 7314 7337 7345 7359 7373 7452
7395 5 7339 7359 7373 7421 7423
7396 5 7326 7429 7433 7434 28540
7397 12 7328 7334 7341 7343 7349 7423 7424 7425 7427 7428 7432 28538
7398 1 7415
7399 1 7415
7400 6 7295 7403 7415 7426 7440 7445
7401 7 7300 7344 7404 7415 7416 7418 7420
7402 3 7298 7407 7409
7403 2 7400 7426
7404 3 7300 7401 7415
7405 1 7298
7406 1 7297
7407 2 7298 7402
7408 4 7272 7298 7335 7419
7409 2 7298 7402
7410 5 7297 7384 7436 7437 7584
7411 1 7419
7412 1 7296
7413 1 7378
7414 3 7299 7352 7380
7415 15 7295 7299 7300 7377 7379 7380 7381 7385 7386 7398 7399 7400 7401 7404 7584
7416 1 7401
7417 4 7345 7355 7420 7448
7418 4 7300 7344 7359 7401
7419 4 7272 7352 7408 7411
7420 5 7313 7344 7345 7401 7417
7421 2 7373 7395
7422 2 7429 7431
7423 5 7349 7359 7395 7397 7430
7424 4 7341 7343 7349 7397
7425 1 7397
7426 3 7295 7400 7403
7427 2 7397 7432
7428 2 7397 7432
7429 6 7283 7326 7396 7422 7431 7433
7430 3 7349 7359 7423
7431 5 7283 7342 7422 7429 7462
7432 3 7397 7427 7428
7433 3 7326 7396 7429
7434 2 7396 28540
7435 1 7379
7436 3 7384 7410 7584
7437 1 7410
7438 3 7295 7444 7453
7439 3 7295 7353 7444
7440 7 7295 7400 7443 7444 7445 7446 7453
7441 5 7288 7309 7329 7354 7447
7442 5 7329 7370 7447 7449 7450
7443 2 7295 7440
7444 5 7295 7438 7439 7440 7453
7445 2 7400 7440
7446 1 7440
7447 3 7329 7441 7442
7448 2 7355 7417
7449 1 7442
7450 3 7370 7442 7454
7451 3 7460 7461 7463
7452 6 7314 7355 7373 7394 7458 7459
7453 5 7293 7295 7438 7440 7444
7454 3 7365 7370 7450
7455 2 7366 7371
7456 3 7362 7365 7367
7457 3 7363 7368 7371
7458 1 7452
7459 1 7452
7460 6 7364 7366 7371 7372 7451 7463
7461 5 7338 7364 7372 7451 7463
7462 3 7332 7342 7431
7463 4 7372 7451 7460 7461
7464 2 7375 7479
7465 4 7468 7581 7582 7583
7466 2 28560 28564
7467 3 7469 7475 28555
7468 4 7465 7580 7581 28570
7469 3 7467 7475 28555
7470 6 7174 7578 7580 28554 28555 28566
7471 3 7531 7552 7564
7472 2 7512 28555
7473 7 7169 7475 7502 7516 7524 7577 28555
7474 5 7383 7388 7552 28554 28555
7475 5 7467 7469 7473 7502 28555
7476 3 7183 7506 28561
7477 4 7488 7517 7530 7557
7478 2 7488 7532
7479 2 7375 7464
7480 1 7584
7481 2 7508 7545
7482 1 7576
7483 2 7575 7576
7484 1 7532
7485 1 7532
7486 1 7532
7487 1 7532
7488 9 7477 7478 7511 7513 7518 7519 7530 7532 28558
7489 1 7575
7490 1 7532
7491 2 7513 28558
7492 2 7533 28558
7493 3 7169 7516 7522
7494 1 28558
7495 3 7533 7540 28558
7496 3 7539 28567 28568
7497 1 28568
7498 1 28568
7499 1 28568
7500 1 28568
7501 1 28568
7502 2 7473 7475
7503 1 28558
7504 2 7179 7515
7505 3 7515 7521 7571
7506 3 7183 7476 7574
7507 4 7171 7182 7543 7544
7508 7 7382 7481 7525 7526 7545 7546 7548
7509 2 7552 7564
7510 6 7170 7176 7181 7556 7563 7564
7511 5 7488 7518 7519 7530 28558
7512 3 7472 7515 28555
7513 4 7488 7491 7532 28558
7514 4 7170 7175 7528 7564
7515 11 7179 7504 7505 7512 7520 7521 7565 7566 7567 7571 28555
7516 7 7169 7473 7493 7524 7571 7572 28555
7517 5 7172 7477 7530 7557 7562
7518 2 7488 7511
7519 2 7488 7511
7520 2 7515 7566
7521 6 7505 7515 7566 7568 7569 7571
7522 4 7169 7493 7570 7576
7523 1 7576
7524 3 7169 7473 7516
7525 1 7508
7526 2 7508 7548
7527 2 7554 7555
7528 2 7175 7514
7529 1 7549
7530 6 7172 7477 7488 7511 7517 28558
7531 1 7471
7532 8 7478 7484 7485 7486 7487 7488 7490 7513
7533 5 7492 7495 7538 7540 28558
7534 2 7539 28567
7535 1 7541
7536 1 28568
7537 1 28568
7538 1 7533
7539 3 7496 7534 28567
7540 2 7495 7533
7541 1 7535
7542 2 7543 7559
7543 5 7182 7507 7542 7544 7559
7544 3 7171 7507 7543
7545 2 7481 7508
7546 2 7508 7548
7547 1 7548
7548 6 7382 7387 7508 7526 7546 7547
7549 4 7376 7387 7529 28554
7550 1 7551
7551 2 7550 7553
7552 6 7471 7474 7509 7553 7564 28554
7553 3 7551 7552 28554
7554 1 7527
7555 2 7527 7564
7556 7 7171 7176 7177 7181 7510 7563 7564
7557 3 7477 7517 7562
7558 1 7559
7559 7 7177 7182 7542 7543 7558 7560 7561
7560 2 7559 7561
7561 3 7177 7559 7560
7562 4 7172 7178 7517 7557
7563 4 7176 7510 7556 7564
7564 11 7170 7175 7181 7471 7509 7510 7514 7552 7555 7556 7563
7565 2 7179 7515
7566 3 7515 7520 7521
7567 1 7515
7568 1 7521
7569 2 7521 7571
7570 2 7522 7576
7571 6 7505 7515 7516 7521 7569 28555
7572 1 7516
7573 3 7173 7178 28561
7574 4 7173 7183 7506 28561
7575 3 7483 7489 7576
7576 8 7169 7482 7483 7522 7523 7570 7575 7577
7577 3 7169 7473 7576
7578 1 7470
7579 1 7174
7580 6 7174 7468 7470 28520 28566 28570
7581 2 7465 7468
7582 2 7465 7583
7583 2 7465 7582
7584 5 7297 7410 7415 7436 7480
7585 2 7266 7379
7586 6 7607 8488 8489 8490 18666 18669
7587 5 7604 8692 15654 15655 15659
7588 5 7604 7607 8490 18669 18671
7589 5 7607 7640 8520 8540 14791
7590 9 7605 7606 7607 7610 7634 7640 15651 15656 18672
7591 2 7610 15662
7592 2 7610 15662
7593 2 7611 7635
7594 1 7635
7595 1 15623
7596 1 15623
7597 6 7612 7613 7614 7635 15623 17885
7598 1 15623
7599 3 7613 7615 15623
7600 2 15623 18533
7601 10 7618 7635 7636 13874 15623 15663 18535 18703 18811 18894
7602 10 7640 8520 8538 8540 8877 10353 10355 10385 10399 14717
7603 6 7630 10332 10333 10334 10335 18728
7604 6 7587 7588 8692 15659 18669 18671
7605 5 7590 15656 15658 15660 18672
7606 2 7590 7634
7607 26 7586 7588 7589 7590 7632 7633 7640 8489 8490 8690 8691 8877 13562 13899 13976 14791 15603 15652 18655 18656 18657 18658 18659 18663 18671 18672
7608 5 7640 10381 10382 10399 15610
7609 3 7635 10360 10400
7610 10 7590 7591 7592 7634 7640 15610 15611 15616 15662 17884
7611 2 7593 7635
7612 5 7597 7635 7636 15618 17885
7613 5 7597 7599 7636 15623 17885
7614 5 7597 7635 15623 18514 18533
7615 2 7599 15623
7616 7 10316 10318 10322 10393 10394 18690 18694
7617 7 8693 8868 10321 10323 18694 18695 18696
7618 5 7601 7635 15623 18533 18535
7619 9 7629 8528 8545 10330 10331 10371 18587 18728 18898
7620 8 7631 10336 10373 10374 13839 15635 18600 20210
7621 3 13839 15637 20211
7622 2 10376 13839
7623 2 10376 13839
7624 2 10376 13839
7625 5 13838 14086 14223 18735 18737
7626 7 10376 13839 18627 18738 18840 18899 20213
7627 5 7634 10306 10352 15607 15661
7628 15 8491 8707 8878 8891 10309 10310 10357 10359 10364 10385 10387 10389 10399 18679 18694
7629 4 7619 10331 18726 18728
7630 7 7603 10334 10335 10373 18600 18728 18898
7631 4 7620 10373 10374 13839
7632 5 7607 13976 14894 15603 15604
7633 2 7607 15652
7634 16 7590 7606 7610 7627 10292 10306 10350 10351 10352 15605 15608 15657 15661 17884 20207 20220
7635 28 7593 7594 7597 7601 7609 7611 7612 7614 7618 8699 8705 10322 10325 10327 10360 10388 10393 10400 15618 18505 18533 18535 18545 18694 18698 18701 18703 18704
7636 24 7601 7612 7613 10296 10297 10326 10366 10367 10369 10383 15623 15624 15625 15663 15664 15666 15667 17885 18811 18813 18831 18894 20221 20222
7637 6 13869 15667 18742 18814 18815 18832
7638 3 17887 18561 18897
7639 2 8706 18559
7640 13 7589 7590 7602 7607 7608 7610 8520 10355 10358 10382 10399 15610 18674
7641 8 7662 9835 9864 9866 17883 17894 17907 17908
7642 5 7651 7655 7658 7665 7671
7643 11 7667 7668 7678 7679 7680 14812 14813 17910 17916 18405 18406
7644 4 7850 14813 17911 17916
7645 3 7646 7657 14874
7646 9 7645 7657 7668 7850 14638 14874 16534 17911 17916
7647 4 7850 14638 14639 16534
7648 3 7850 14639 14877
7649 5 7675 7682 8995 14706 14708
7650 16 7656 7664 7666 7676 7677 7964 7968 7969 14636 14843 14844 14846 17913 17914 17918 18406
7651 4 7642 7658 7665 7850
7652 2 7658 7850
7653 3 7658 7681 7850
7654 5 7670 9011 9036 14770 14771
7655 6 7642 7665 7671 14771 14828 14846
7656 1 7650
7657 3 7645 7646 14874
7658 8 7642 7651 7652 7653 7671 7681 7850 19818
7659 7 7669 7673 7850 9693 9700 14637 14698
7660 5 7673 7674 7850 9700 14706
7661 4 7675 14868 14871 14878
7662 3 7641 9864 17907
7663 5 7949 7962 8990 9011 14771
7664 3 7650 7677 14844
7665 5 7642 7651 7655 7850 14846
7666 4 7650 7964 7969 18406
7667 2 7643 17916
7668 11 7643 7646 7678 7680 7966 14864 14869 14874 17915 17916 18405
7669 6 7659 7672 9693 9694 9700 19744
7670 3 7654 9009 9036
7671 12 7642 7655 7658 8989 9006 9008 9035 9698 9880 14538 17880 19818
7672 6 7669 7681 9693 14637 19744 19818
7673 3 7659 7660 9700
7674 2 7660 7850
7675 7 7649 7661 7683 8995 9849 14708 14878
7676 2 7650 14844
7677 3 7650 7664 14844
7678 2 7643 7668
7679 2 7643 18405
7680 2 7643 7668
7681 6 7653 7658 7672 7850 14637 19818
7682 4 7649 9700 14706 14708
7683 3 7675 9849 14708
7684 9 8742 9513 9528 9633 10242 19717 19795 19860 19862
7685 5 9537 9800 9815 9851 9889
7686 11 8743 9516 9634 9636 9644 17876 17881 17901 17903 19722 19863
7687 4 7704 7714 9062 9064
7688 2 7695 9577
7689 4 7698 9058 17873 17898
7690 1 7715
7691 3 7711 14525 14646
7692 4 7711 14756 14765 19812
7693 3 20084 28635 28664
7694 13 7924 7928 7942 7958 8412 8415 8416 9568 9570 10273 14768 14806 14807
7695 4 7688 8887 9577 14683
7696 21 7959 8412 8417 8478 8512 8513 8514 8886 9570 9571 9574 9575 9577 9733 14669 14675 14676 14679 14680 14785 17898
7697 2 14685 17897
7698 9 7689 8887 8888 8903 9058 9577 9584 17868 17898
7699 5 8888 9058 9699 17875 17889
7700 4 7708 8888 9059 9720
7701 6 7708 7709 9059 14772 14775 17899
7702 4 7709 9059 14774 17899
7703 2 9059 17899
7704 4 7687 9062 9064 9743
7705 4 8895 9066 9631 14777
7706 12 8898 9056 9066 9631 9643 9695 9703 9704 13504 14521 14779 17893
7707 4 7967 8581 9037 17897
7708 7 7700 7701 8888 9059 9594 14814 17899
7709 8 7701 7702 9059 14772 14773 14774 14775 17899
7710 1 9427
7711 15 7691 7692 9122 9428 14524 14525 14527 14646 14756 14764 14765 18230 18242 18282 19852
7712 1 9427
7713 6 9443 14817 14824 18308 19852 19854
7714 15 7687 7754 8872 8904 8906 9045 9051 9052 9053 9060 9061 9062 9064 14716 17899
7715 7 7690 9872 9903 9904 16539 18758 18769
7716 5 8911 8998 9049 13745 14413
7717 2 10287 19733
7718 3 18238 18301 18302
7719 6 9076 9082 9083 9087 10655 18253
7720 2 7781 10731
7721 4 7781 10731 10763 20186
7722 3 7781 10763 20185
7723 2 10262 10286
7724 1 10287
7725 2 18263 18302
7726 2 18263 18302
7727 2 7758 9059
7728 2 10696 18243
7729 2 8896 9723
7730 3 8414 8896 9723
7731 1 9696
7732 2 8893 9696
7733 3 8893 9696 18689
7734 3 8893 9696 18689
7735 2 8882 9725
7736 4 9862 18752 18772 18773
7737 1 18765
7738 3 18765 20166 20188
7739 5 7784 9902 18766 20188 20202
7740 3 8883 9730 17888
7741 1 17888
7742 2 18235 18263
7743 4 7787 15574 18261 18302
7744 2 7787 9084
7745 4 10720 18270 18284 18310
7746 2 10720 18271
7747 2 18248 18293
7748 4 10720 18271 18272 18292
7749 2 10720 18293
7750 3 10714 18311 20177
7751 3 10714 18311 20178
7752 4 10726 18293 18311 20182
7753 6 10570 10576 10577 18275 18293 18770
7754 3 7714 9053 9064
7755 2 10256 10273
7756 4 10642 18231 18279 18304
7757 2 18279 18304
7758 3 7727 9059 14775
7759 2 18274 18293
7760 3 10577 18770 18771
7761 3 10565 18312 20183
7762 4 9707 9710 13504 14835
7763 2 9709 17894
7764 2 9709 17894
7765 1 9709
7766 1 9709
7767 1 13504
7768 1 13504
7769 2 10256 10273
7770 4 7790 10273 10284 14501
7771 2 7954 10273
7772 2 10266 18295
7773 4 10263 10264 10269 10286
7774 1 18270
7775 2 20154 20177
7776 1 18293
7777 3 10720 18249 18293
7778 2 10720 20158
7779 3 10726 18293 20182
7780 4 10726 18293 18770 20159
7781 8 7720 7721 7722 10731 10763 18770 20159 20185
7782 1 17900
7783 3 18754 19799 19867
7784 4 7739 9902 18775 20202
7785 4 9902 18765 18775 18780
7786 1 18780
7787 7 7743 7744 9084 10657 15574 15587 18302
7788 2 9069 9117
7789 1 10262
7790 5 7770 10272 10273 10284 18053
7791 5 7829 7895 10544 18177 18892
7792 5 8291 8292 18027 18028 18858
7793 1 18858
7794 2 8298 10498
7795 4 8301 10500 18863 18904
7796 2 8309 18863
7797 1 10488
7798 2 10508 18046
7799 3 7834 18035 18046
7800 3 7836 10488 18038
7801 4 8315 10490 18825 18865
7802 4 8315 10505 15373 18826
7803 3 7838 18035 18046
7804 3 8324 10504 18046
7805 8 7817 7837 8323 8328 10508 10520 10549 18046
7806 3 8328 10520 18046
7807 1 18046
7808 1 18046
7809 3 8334 10514 18867
7810 2 10515 18046
7811 3 7843 10522 18050
7812 5 7822 7841 10526 18050 18827
7813 2 18166 18875
7814 3 8367 10556 18893
7815 2 8307 18819
7816 2 8307 18864
7817 4 7805 8323 10508 18879
7818 3 10514 18867 18910
7819 2 7843 18050
7820 5 8334 10514 10521 18045 18891
7821 5 7839 8342 10524 18050 18872
7822 4 7812 7839 18050 18827
7823 13 7875 7892 7893 8344 8348 8357 8839 10482 10518 10525 14566 18890 18891
7824 6 7832 10536 18160 18161 18165 18891
7825 3 8393 10542 18171
7826 2 10556 18171
7827 2 10556 18171
7828 3 18167 18171 18879
7829 12 7791 10544 18167 18168 18169 18172 18173 18174 18175 18177 18878 18892
7830 6 8367 10556 18170 18171 18176 18178
7831 4 8367 10556 18178 18882
7832 4 7824 7893 10536 18165
7833 4 8311 8312 10488 18038
7834 5 7799 8310 10489 18035 18046
7835 3 8313 10508 18038
7836 4 7800 8311 10488 18038
7837 2 7805 10549
7838 6 7803 8319 10489 10504 18035 18046
7839 5 7821 7822 10524 18050 18827
7840 2 8342 18872
7841 2 7812 18050
7842 4 8349 18051 18052 18875
7843 4 7811 7819 10522 18050
7844 4 7845 7846 7852 20161
7845 3 7844 7852 20161
7846 4 7844 7852 19860 20161
7847 6 7848 9902 18754 18774 19800 19822
7848 4 7847 9819 9902 19822
7849 3 7853 14546 14879
7850 26 7644 7646 7647 7648 7651 7652 7653 7658 7659 7660 7665 7674 7681 14637 14638 14639 14640 14698 14706 14812 14813 14846 14877 17910 17911 18406
7851 5 10705 10761 19858 20153 20176
7852 8 7844 7845 7846 10706 10758 10759 19860 20161
7853 8 7849 8995 14546 14706 14877 14878 14879 18098
7854 3 8260 18065 18074
7855 5 7857 8263 18064 18073 18074
7856 3 7857 8715 15043
7857 7 7855 7856 8715 15023 15043 18073 18074
7858 5 8395 10446 15649 15650 20218
7859 7 8394 8395 8396 8397 8399 10446 20218
7860 1 8400
7861 1 8400
7862 1 8402
7863 6 7885 8287 8398 8400 18843 18907
7864 4 7888 8402 10491 18850
7865 1 8402
7866 2 8404 8405
7867 6 7891 8401 8404 8407 18852 18855
7868 1 8408
7869 2 8408 15371
7870 2 8409 15373
7871 9 8297 8299 8403 8406 8408 8824 10497 18031 18860
7872 7 8302 8409 8410 10501 15373 18862 18865
7873 4 8336 10518 18868 18885
7874 6 7875 10517 15375 18869 18870 18887
7875 12 7823 7874 7892 8338 10517 10518 14563 15374 15376 18868 18870 18887
7876 1 9361
7877 2 10406 18806
7878 3 9361 11091 15395
7879 1 9377
7880 7 9361 9377 11091 11092 11095 18341 18352
7881 22 9354 9355 9356 9357 9358 9359 9360 9363 9364 9365 9366 9370 9372 11088 11089 11090 11103 15412 18179 18181 18185 18187
7882 1 9377
7883 4 9373 11103 18181 18808
7884 5 9377 11095 11104 18194 18352
7885 4 7863 8287 18843 18907
7886 4 8286 10492 18851 18908
7887 2 10492 18851
7888 5 7864 10491 18025 18850 18851
7889 3 8289 10493 18029
7890 6 10494 10495 10496 18033 18856 18858
7891 7 7867 8407 18024 18030 18852 18855 18856
7892 14 7823 7875 8838 8839 10483 10484 10485 10532 14563 14564 15376 15378 18873 18876
7893 9 7823 7832 8357 10536 14566 14567 14568 15378 18165
7894 8 8362 8363 10539 10541 10543 15379 18166 18848
7895 6 7791 8365 10543 10544 18177 18881
7896 4 8368 10556 18178 18882
7897 3 8368 8369 10556
7898 10 8381 8382 8383 8688 8689 10275 15434 15437 18145 18147
7899 6 8550 8566 15418 18069 18154 18355
7900 8 8628 9911 9918 10414 17920 19897 19902 19923
7901 4 17922 17923 19939 19944
7902 4 17922 17924 19902 19939
7903 3 17924 19902 19911
7904 6 8197 8231 8629 8630 19880 19902
7905 4 8198 8233 8631 19880
7906 11 10419 17925 17926 17927 17928 17929 17930 19882 19904 19913 19941
7907 3 8241 10420 19924
7908 6 8217 8242 8250 8914 19947 19948
7909 4 8250 8252 17933 17934
7910 4 8252 8915 17934 17935
7911 3 9955 17936 19887
7912 3 8219 17936 19887
7913 3 8634 9955 17936
7914 5 8219 8635 8636 17937 19929
7915 3 7917 7918 18061
7916 10 7920 7999 8429 15443 15444 15446 18071 18349 18360 18361
7917 2 7915 18061
7918 6 7915 8429 15442 15445 15446 18061
7919 4 7922 7999 15446 18061
7920 5 7916 15433 15440 15443 18360
7921 2 7999 11117
7922 8 7919 7999 8977 9031 11117 15435 18061 18126
7923 4 7939 7942 10273 14664
7924 5 7694 7942 7947 7957 14666
7925 2 7957 7967
7926 1 7967
7927 4 7946 7967 10255 10279
7928 4 7694 7945 7958 14666
7929 2 7947 7967
7930 2 7947 7967
7931 2 7967 14782
7932 1 7967
7933 1 7967
7934 1 7967
7935 3 7961 7967 8957
7936 1 7963
7937 3 7961 7967 8957
7938 2 7951 14844
7939 5 7923 7954 10273 14629 14664
7940 7 7957 10250 10259 10277 14502 14629 14664
7941 4 7956 8984 9004 14827
7942 6 7694 7923 7924 7957 10273 14664
7943 4 7956 8982 9004 14827
7944 5 7956 7967 9004 9566 14530
7945 4 7928 7958 9570 14666
7946 2 7927 7967
7947 12 7924 7929 7930 7957 7967 8515 9572 14666 14670 14672 14784 17897
7948 2 7967 8963
7949 3 7663 7962 9011
7950 4 7962 8975 17912 18336
7951 4 7938 7963 14844 17913
7952 4 7965 8609 17889 18331
7953 5 7966 8588 8589 8600 18332
7954 7 7771 7939 10258 10273 14501 14629 14783
7955 6 8949 8977 9001 9004 9031 18061
7956 9 7941 7943 7944 7967 8949 9004 10284 14827 18061
7957 9 7924 7925 7940 7942 7947 7967 10255 10277 14664
7958 4 7694 7928 7945 9570
7959 5 7696 9571 14667 14668 14669
7960 1 7967
7961 4 7935 7937 7967 8957
7962 17 7663 7949 7950 8958 8965 8975 8976 8979 8980 9011 14771 14828 14846 17912 17913 18327 18336
7963 9 7936 7951 8582 8603 14844 17913 18327 18336 18388
7964 4 7650 7666 7969 18408
7965 10 7952 8544 8590 8597 8606 14845 17873 17889 17898 18331
7966 12 7668 7953 8580 8589 14864 14875 14877 16534 16535 17917 18404 18422
7967 60 7707 7925 7926 7927 7929 7930 7931 7932 7933 7934 7935 7937 7944 7946 7947 7948 7956 7957 7960 7961 8531 8581 8595 8604 8950 8952 8953 8954 8956 8957 8960 8961 8963 8964 8978 8981 9010 9566 10254 10255 10261 10265 10267 10268 10279 10280 10281 10284 14530 14672 14674 14769 14782 14810 14842 17897 18326 18337 18340 18391
7968 5 7650 8976 14636 14843 14846
7969 7 7650 7666 7964 14844 18322 18330 18408
7970 3 10433 10459 15604
7971 2 15608 20204
7972 9 10307 10308 10380 10434 10435 10460 10462 15608 20207
7973 1 10461
7974 7 10356 10362 10462 15613 15615 15619 20207
7975 1 15789
7976 3 10465 15735 15789
7977 1 10464
7978 1 10467
7979 9 10295 10437 10438 10439 10466 10467 15621 15622 15625
7980 1 10468
7981 1 18745
7982 1 10471
7983 3 10472 10473 18746
7984 3 10472 10475 18746
7985 1 10476
7986 3 8402 8819 10480
7987 1 8822
7988 9 10469 10478 13951 14908 14910 15391 16004 16006 18745
7989 1 8823
7990 2 8827 8828
7991 1 8826
7992 1 8827
7993 1 8828
7994 1 8829
7995 2 8830 8831
7996 1 8832
7997 4 8833 8834 8835 15372
7998 2 7999 9404
7999 10 7916 7919 7921 7922 7998 9404 11117 15432 15443 15446
8000 8 8379 8548 8688 9392 18343 18346 18353 18354
8001 2 8379 18354
8002 3 8176 8177 8182
8003 2 9176 17948
8004 1 20088
8005 5 8139 8643 8644 8646 9321
8006 3 8796 9323 10113
8007 1 9146
8008 5 8141 8647 8918 17949 17951
8009 5 8064 8648 8651 8657 9292
8010 5 8652 8653 9293 9298 10124
8011 5 9140 9146 10122 16406 16493
8012 1 8921
8013 1 8921
8014 1 8923
8015 1 8923
8016 1 8923
8017 2 8922 9170
8018 1 8923
8019 3 8147 8922 9170
8020 5 9217 9218 10151 16406 16493
8021 5 8069 10151 11203 14215 16500
8022 2 8667 8923
8023 3 9146 9300 10151
8024 4 8147 8662 9170 10136
8025 3 9135 10151 16406
8026 2 10151 11206
8027 5 8159 11167 11206 11211 11690
8028 2 10151 11206
8029 3 8159 10151 11211
8030 5 8073 8079 8926 9312 17972
8031 4 8190 9160 10152 15380
8032 4 8191 8928 17977 17980
8033 4 8191 8930 17980 17983
8034 6 9161 9180 9182 9183 10164 10820
8035 3 9234 10163 10167
8036 2 9234 17988
8037 7 8671 9161 9181 9233 9314 10164 17984
8038 9 8088 8191 8669 8930 15383 15384 17983 17986 17989
8039 5 8932 9161 9314 9315 10820
8040 3 8172 9316 10182
8041 5 8672 8941 10188 11292 18005
8042 3 8942 16593 18018
8043 5 9274 9276 10202 10768 10806
8044 13 8136 9272 9273 9275 9277 9278 9279 9280 10193 10201 10805 10806 18019
8045 7 9192 9193 9194 10202 10768 10806 10807
8046 7 8173 8948 16094 16593 16615 18022 18023
8047 3 16094 16582 18023
8048 2 10417 19904
8049 5 8919 9142 9213 17950 17953
8050 3 8178 18791 18793
8051 1 8178
8052 2 8178 8182
8053 5 8178 15045 18074 18152 18791
8054 1 8182
8055 1 8183
8056 3 9258 10097 10101
8057 1 10102
8058 2 9259 10102
8059 1 10102
8060 3 10104 20016 20088
8061 3 9318 9338 10123
8062 2 9339 10123
8063 2 9339 10123
8064 3 8009 8657 9292
8065 2 9340 10123
8066 3 8657 9292 10118
8067 2 9307 10127
8068 2 9343 10134
8069 4 8021 10151 14215 16500
8070 2 9227 10151
8071 3 8666 9313 10140
8072 2 8925 9312
8073 2 8030 9312
8074 4 9230 9313 10140 10143
8075 1 9228
8076 2 10151 15380
8077 2 9158 15380
8078 2 9311 10820
8079 5 8030 8926 9228 9312 17976
8080 3 10158 17976 17977
8081 6 8927 8929 9230 9235 9313 10154
8082 2 9312 15380
8083 4 9185 9239 9313 10172
8084 2 11220 15380
8085 2 11220 15380
8086 3 9184 9235 17981
8087 2 9334 15381
8088 9 8038 8191 8192 9312 9334 10158 10166 15382 15383
8089 8 8171 8172 8180 9235 9238 10173 17991 18002
8090 5 8935 9239 9316 10185 18004
8091 4 8172 8937 18002 18004
8092 4 8935 8940 9239 18003
8093 1 18018
8094 6 8161 8939 8945 9166 9239 18017
8095 2 10123 16498
8096 3 9320 9340 10123
8097 3 9286 17947 17948
8098 2 17947 17948
8099 2 9338 10123
8100 2 9289 9319
8101 2 9288 9321
8102 2 9340 10123
8103 4 8818 9295 10123 16494
8104 3 9213 9322 17950
8105 2 9339 10123
8106 2 9295 10123
8107 3 9294 9341 10123
8108 2 9341 10123
8109 3 8110 9313 10134
8110 6 8109 9295 9313 9325 10120 10134
8111 3 8657 9294 9341
8112 2 9313 10134
8113 3 9299 9343 10134
8114 3 9313 9342 10134
8115 3 8924 10132 17963
8116 2 9343 10134
8117 3 9149 10132 17964
8118 1 9343
8119 3 9152 9305 10168
8120 3 8924 9149 17966
8121 2 9306 10136
8122 2 8663 10134
8123 1 10147
8124 6 8149 9220 9269 9312 10131 10137
8125 2 9312 10137
8126 4 9225 9311 10147 10155
8127 5 8156 8157 9312 10137 10139
8128 2 9332 10168
8129 3 8160 10151 11211
8130 2 10151 11182
8131 4 9313 9333 10168 10172
8132 2 8927 9230
8133 2 9332 10168
8134 4 8668 9159 10156 17973
8135 2 8934 9240
8136 9 8044 9167 9189 9242 10187 10193 10797 18008 18019
8137 2 9320 10100
8138 2 10111 20016
8139 6 8005 8643 8644 9321 10108 20013
8140 2 10111 20016
8141 6 8008 8647 10111 17949 17951 20016
8142 8 8920 8922 9202 9206 9296 10112 10117 10127
8143 3 8655 8658 9343
8144 3 8659 9141 10126
8145 4 8659 9211 9302 10126
8146 2 9342 10134
8147 3 8019 8024 8922
8148 2 9219 10134
8149 4 8124 8660 9302 10131
8150 4 8661 8663 9343 10134
8151 4 8663 8666 9313 10135
8152 2 8664 10137
8153 2 17968 17971
8154 2 8666 9313
8155 2 9225 10155
8156 4 8127 9312 10137 10139
8157 3 8127 9312 10139
8158 2 9227 10151
8159 6 8027 8029 10151 11206 11211 16799
8160 3 8129 10151 11211
8161 3 8094 8678 9166
8162 2 8178 8182
8163 1 8182
8164 2 8182 15025
8165 1 8182
8166 1 8179
8167 1 8187
8168 1 8188
8169 1 10123
8170 2 9294 10123
8171 4 8089 9235 10171 17991
8172 8 8040 8089 8091 9238 9316 10182 18002 18004
8173 4 8046 8181 16593 18022
8174 1 8919
8175 5 9135 9146 9337 10151 16402
8176 2 8002 8182
8177 3 8002 8182 18112
8178 12 8050 8051 8052 8053 8162 8182 18129 18152 18782 18791 18792 18793
8179 6 8166 8182 8183 18113 18787 18795
8180 6 8089 8670 8938 17991 17995 18002
8181 3 8173 16593 18022
8182 16 8002 8052 8054 8162 8163 8164 8165 8176 8177 8178 8179 15025 18790 18792 18794 18795
8183 5 8055 8179 18788 18795 18798
8184 1 8195
8185 1 8841
8186 4 8841 10275 10458 18158
8187 5 8167 8841 10275 18141 18159
8188 6 8168 10275 18058 18059 18141 18159
8189 4 10275 18122 18144 18148
8190 3 8031 10152 15380
8191 8 8032 8033 8038 8088 10158 17977 17980 17983
8192 3 8088 9334 15382
8193 3 8677 16593 18022
8194 2 16593 18018
8195 4 8184 10455 18789 18795
8196 6 8627 9910 10413 17919 19895 19897
8197 5 7904 8231 8629 9926 19902
8198 5 7905 8233 19880 19902 19912
8199 2 8235 19902
8200 3 8237 10416 19902
8201 1 8236
8202 1 10417
8203 1 10417
8204 1 10417
8205 1 10417
8206 9 8234 8235 9927 9928 9930 9933 19902 19903 19945
8207 1 10417
8208 1 10417
8209 5 8236 8238 8239 10417 19904
8210 5 8241 10420 19882 19883 19941
8211 2 10420 19883
8212 1 10420
8213 3 10420 19883 19941
8214 4 10422 19884 19915 19926
8215 2 10421 19915
8216 5 8242 8243 10423 19916 19947
8217 9 7908 8242 8244 8245 8246 8250 10423 19927 19951
8218 5 8253 8254 17935 19917 19951
8219 12 7912 7914 8255 9953 9956 10424 17936 19887 19888 19917 19928 19929
8220 4 10425 17937 20024 20063
8221 2 17937 19920
8222 2 8257 19920
8223 5 8256 8257 8258 15469 19920
8224 1 10428
8225 6 8259 8638 9973 9977 10426 19908
8226 9 8637 9970 9985 10427 15469 17938 19873 19931 19932
8227 2 10428 19922
8228 3 10428 19908 19922
8229 3 10413 19894 19897
8230 2 10415 19902
8231 3 7904 8197 19902
8232 2 10416 19902
8233 4 7905 8198 19902 19912
8234 2 8206 19903
8235 3 8199 8206 19902
8236 3 8201 8209 10417
8237 2 8200 19902
8238 2 8209 19904
8239 3 8209 10417 19904
8240 3 10418 19904 19941
8241 4 7907 8210 10420 19882
8242 5 7908 8216 8217 10423 19947
8243 3 8216 10423 19916
8244 2 8217 19951
8245 2 8217 19951
8246 3 8217 10423 19951
8247 2 10423 19951
8248 3 10423 19886 19949
8249 3 10423 19917 19951
8250 6 7908 7909 8217 17933 19948 19951
8251 2 10423 19917
8252 6 7909 7910 17933 17934 17935 19951
8253 3 8218 19917 19951
8254 3 8218 17935 19917
8255 8 8219 10424 17937 19888 19918 19929 20063 20138
8256 1 8223
8257 3 8222 8223 19920
8258 1 8223
8259 2 8225 19908
8260 2 7854 18074
8261 2 18066 18074
8262 2 8457 18066
8263 4 7855 8447 8557 18064
8264 4 8457 8458 8549 8559
8265 4 8432 8433 8450 8549
8266 4 8279 8434 8456 8562
8267 3 8470 8471 18150
8268 2 8449 8470
8269 3 8448 8449 8619
8270 1 8619
8271 3 8619 8620 15413
8272 1 15413
8273 1 18809
8274 1 18809
8275 6 8451 8459 8565 8621 15415 18810
8276 1 8565
8277 2 8463 8565
8278 2 8463 8546
8279 3 8266 8456 8555
8280 10 8428 8437 8468 8469 8620 14853 14863 18111 18128 18150
8281 6 8448 8469 8470 8620 18111 18150
8282 2 8620 15438
8283 1 20218
8284 6 8511 18849 18854 18905 18906 18907
8285 2 10491 18851
8286 3 7886 18851 18908
8287 4 7863 7885 18843 18907
8288 4 10559 18854 18907 18908
8289 9 7889 10492 10493 10559 18025 18029 18823 18854 18908
8290 2 18029 18857
8291 2 7792 18028
8292 2 7792 18858
8293 1 18858
8294 1 18858
8295 1 18858
8296 3 18857 18858 18904
8297 2 7871 18860
8298 3 7794 10498 18860
8299 1 7871
8300 3 10499 18865 18910
8301 1 7795
8302 4 7872 10501 18862 18865
8303 2 8409 18865
8304 1 18865
8305 1 18865
8306 5 10486 10487 11452 14190 18847
8307 13 7815 7816 10488 18038 18641 18819 18820 18821 18822 18845 18846 18864 18904
8308 1 18865
8309 4 7796 10499 18863 18910
8310 5 7834 10489 10508 18046 18847
8311 4 7833 7836 10488 18038
8312 5 7833 10488 10508 18038 18847
8313 3 7835 10508 18038
8314 3 10547 10548 18863
8315 7 7801 7802 10490 15373 18825 18826 18865
8316 3 10503 10516 18865
8317 4 10502 10547 18863 18910
8318 1 10548
8319 3 7838 10504 18046
8320 1 10548
8321 2 10550 18036
8322 2 18045 18910
8323 4 7805 7817 10549 18879
8324 5 7804 10504 10509 14175 18046
8325 7 10505 10516 10557 15373 18826 18865 18884
8326 2 10509 18046
8327 2 10520 18879
8328 4 7805 7806 10520 18046
8329 2 10509 18046
8330 4 10509 10515 14175 18046
8331 6 10510 10511 10512 10515 14175 18046
8332 6 10512 10513 11403 11525 14175 18046
8333 2 10515 18046
8334 8 7809 7820 10514 10521 10551 18867 18871 18891
8335 3 10520 18828 18879
8336 10 7873 10516 10518 10525 15373 18884 18885 18888 18890 18891
8337 2 11403 18043
8338 4 7875 10518 18868 18889
8339 2 11403 18043
8340 2 10521 18871
8341 6 8391 10520 10527 10558 18877 18911
8342 5 7821 7840 10522 18050 18872
8343 1 10525
8344 2 7823 10525
8345 1 11497
8346 2 11497 18046
8347 5 10519 11403 11497 11505 18046
8348 2 7823 10525
8349 1 7842
8350 2 11497 18046
8351 4 8393 10534 10558 18877
8352 3 18164 18828 18877
8353 2 8393 18877
8354 11 10522 10524 10526 10541 10544 18050 18051 18827 18872 18879 18881
8355 7 8391 10527 10529 10530 10534 10558 18162
8356 6 8391 10528 11497 11506 11863 18874
8357 4 7823 7893 10536 18891
8358 5 8391 10528 10530 10537 18874
8359 2 8393 10555
8360 2 8393 10555
8361 6 8393 10537 10538 12458 14199 18874
8362 4 7894 10539 10541 18875
8363 5 7894 10541 10543 18848 18881
8364 4 18167 18829 18830 18879
8365 4 7895 10544 18880 18881
8366 4 10542 10545 10555 18171
8367 5 7814 7830 7831 10556 18178
8368 3 7896 7897 10556
8369 4 7897 10546 10556 16938
8370 3 8548 18142 18158
8371 2 8379 8688
8372 1 8688
8373 3 8380 8688 15434
8374 2 8548 18135
8375 2 8548 18135
8376 2 8548 18158
8377 2 8688 18142
8378 3 8688 18057 18142
8379 5 8000 8001 8371 8688 18354
8380 3 8373 8688 15434
8381 2 7898 8688
8382 3 7898 10275 18145
8383 3 7898 8689 18147
8384 4 8689 10275 18060 18147
8385 2 8689 10275
8386 1 10527
8387 1 11497
8388 1 11497
8389 1 10527
8390 1 11497
8391 11 8341 8355 8356 8358 10520 10527 10528 10530 11490 11497 18046
8392 2 10534 18162
8393 21 7825 8351 8353 8359 8360 8361 10533 10534 10535 10537 10540 10542 10552 10553 10554 10555 12458 18163 18164 18171 18877
8394 2 7859 20218
8395 5 7858 7859 10446 15650 20218
8396 1 7859
8397 2 7859 10446
8398 3 7863 18907 20217
8399 1 7859
8400 4 7860 7861 7863 18747
8401 2 7867 18852
8402 8 7862 7864 7865 7986 8819 8820 10479 10480
8403 1 7871
8404 2 7866 7867
8405 2 7866 8821
8406 1 7871
8407 4 7867 7891 18030 18855
8408 4 7868 7869 7871 15371
8409 5 7870 7872 8303 15373 18865
8410 3 7872 10501 15373
8411 4 8413 9689 14518 14605
8412 24 7694 7696 8415 8416 8417 8419 8686 8887 9570 9576 9577 9711 9714 9719 9733 9735 9736 13561 13562 13566 14677 15046 18075 19387
8413 23 8411 8418 8864 8865 9055 9063 9066 9672 9673 9682 9720 9721 9741 9742 10572 10573 14512 14513 14514 14515 14516 14518 14605
8414 26 7730 8867 8876 8877 8892 8894 8896 8897 9055 9063 9066 9628 9687 9722 9723 9744 10574 10575 14518 14520 14605 14606 14608 14736 14795 14796
8415 6 7694 8412 8419 10273 18063 18075
8416 5 7694 8412 9568 9570 14768
8417 2 7696 8412
8418 5 8413 9673 9682 9718 9740
8419 4 8412 8415 15046 18075
8420 1 8443
8421 2 8548 18353
8422 2 8458 8549
8423 2 8459 8565
8424 2 8549 8565
8425 4 8446 8685 10289 10290
8426 2 10432 18128
8427 2 10432 18128
8428 6 8280 8437 8464 10431 18128 28381
8429 6 7916 7918 15444 15445 15446 18071
8430 3 8457 18066 18074
8431 4 8549 8559 8563 18067
8432 6 8265 8456 8460 8549 8561 8563
8433 3 8265 8549 8565
8434 3 8266 8456 8561
8435 2 8551 8563
8436 4 8439 8548 8554 8564
8437 5 8280 8428 8464 8468 14863
8438 1 8456
8439 3 8436 8548 8564
8440 1 15419
8441 10 8455 8462 8466 8546 8547 8565 15419 15421 15423 18191
8442 10 8452 8453 8454 8548 8554 11094 11102 15422 15427 18190
8443 6 8420 8548 11098 18195 18342 18353
8444 2 18342 18353
8445 1 18353
8446 3 8425 8685 10290
8447 2 8263 8557
8448 6 8269 8281 8470 8619 8620 9348
8449 2 8268 8269
8450 3 8265 8549 8560
8451 3 8275 8565 8621
8452 2 8442 8554
8453 1 8442
8454 1 8442
8455 1 8441
8456 12 8266 8279 8432 8434 8438 8460 8551 8552 8553 8555 8561 8563
8457 6 8262 8264 8430 8559 18066 18074
8458 3 8264 8422 8549
8459 3 8275 8423 8565
8460 3 8432 8456 8563
8461 2 8563 18067
8462 2 8441 8565
8463 4 8277 8278 8546 8565
8464 4 8428 8437 14863 28381
8465 1 8565
8466 1 8441
8467 2 8565 15417
8468 4 8280 8437 14853 14863
8469 4 8280 8281 8620 18111
8470 6 8267 8268 8281 8448 8556 18150
8471 4 8267 8557 8558 18150
8472 2 14622 14626
8473 1 14626
8474 1 14627
8475 1 14627
8476 1 14626
8477 3 8802 9940 15461
8478 1 7696
8479 3 8599 18400 18652
8480 2 8599 18400
8481 1 14627
8482 2 14627 20116
8483 2 14627 20116
8484 4 10829 14625 20048 20119
8485 1 20119
8486 2 14627 20116
8487 2 19841 20119
8488 4 7586 18660 18662 18666
8489 3 7586 7607 8691
8490 4 7586 7588 7607 18669
8491 1 7628
8492 4 8583 8587 8616 18334
8493 3 8584 8611 8618
8494 1 8699
8495 2 8699 8879
8496 2 8699 8879
8497 2 8699 8880
8498 1 8611
8499 1 8611
8500 3 8611 8614 18713
8501 1 8612
8502 1 8614
8503 2 8612 17906
8504 1 8614
8505 2 8613 17906
8506 1 16545
8507 2 9902 16544
8508 1 16545
8509 1 8545
8510 4 8545 8884 17863 17888
8511 2 8284 18854
8512 3 7696 9574 14669
8513 1 7696
8514 2 7696 14680
8515 4 7947 14670 14678 17897
8516 1 8548
8517 1 8548
8518 2 8548 18157
8519 4 9020 14877 16495 16535
8520 4 7589 7602 7640 8540
8521 2 8699 8882
8522 3 8698 8711 8713
8523 2 8711 18711
8524 3 8700 8882 8899
8525 5 8712 8714 8870 8900 18712
8526 4 9902 16483 16544 18717
8527 2 8545 8884
8528 4 7619 8545 17888 18898
8529 2 8885 13839
8530 2 8796 9873
8531 3 7967 8581 8595
8532 5 10214 18427 18430 19749 19841
8533 4 8617 8618 14830 17900
8534 1 17900
8535 3 9027 9900 16545
8536 4 8612 8997 17892 17906
8537 3 8548 18156 18157
8538 3 7602 8877 14717
8539 1 18673
8540 7 7589 7602 8520 14717 14791 18670 18673
8541 1 19795
8542 4 9038 17872 17898 18651
8543 4 8599 9000 9038 17872
8544 8 7965 8590 8597 8599 8606 9000 14845 18331
8545 13 7619 8509 8510 8527 8528 8703 8884 10370 10371 14747 17888 18575 18583
8546 4 8278 8441 8463 8565
8547 2 8441 8565
8548 31 8000 8370 8374 8375 8376 8421 8436 8439 8442 8443 8516 8517 8518 8537 8554 8564 8688 9392 18072 18106 18132 18133 18134 18135 18136 18137 18142 18156 18157 18158 18353
8549 13 8264 8265 8422 8424 8431 8432 8433 8450 8458 8559 8560 8563 8565
8550 6 7899 8567 15439 18070 18154 18355
8551 3 8435 8456 8563
8552 1 8456
8553 1 8456
8554 4 8436 8442 8452 8548
8555 2 8279 8456
8556 1 8470
8557 5 8263 8447 8471 18064 18150
8558 1 8471
8559 6 8264 8431 8457 8549 18067 18074
8560 2 8450 8549
8561 3 8432 8434 8456
8562 1 8266
8563 11 8431 8432 8435 8456 8460 8461 8549 8551 18067 18072 18151
8564 4 8436 8439 8548 18072
8565 19 8275 8276 8277 8423 8424 8433 8441 8451 8459 8462 8463 8465 8467 8546 8547 8549 8568 8621 15417
8566 4 7899 15418 18068 18069
8567 4 8550 15439 15441 18355
8568 1 8565
8569 1 15600
8570 1 8578
8571 1 8578
8572 11 8577 9382 9747 9751 9752 9760 9768 10585 10588 10591 15601
8573 7 8578 8579 9386 10412 15598 15601 15602
8574 2 8911 15600
8575 2 8844 15601
8576 2 15598 15601
8577 6 8572 8911 8966 10585 15600 15601
8578 5 8570 8571 8573 15598 15601
8579 6 8573 8974 9384 15598 15599 15602
8580 5 7966 8601 9013 16535 18422
8581 6 7707 7967 8531 8595 9037 18653
8582 6 7963 8603 14844 18322 18328 18397
8583 4 8492 8587 8612 18334
8584 3 8493 8611 8618
8585 3 8611 8618 17900
8586 1 8611
8587 4 8492 8583 8602 8612
8588 2 7953 8600
8589 6 7953 7966 8600 8608 18412 18422
8590 5 7965 8544 9000 17872 17898
8591 1 8609
8592 2 8609 18335
8593 3 8614 9864 17894
8594 3 8614 9028 9864
8595 5 7967 8531 8581 8604 18653
8596 4 8605 18329 18330 18401
8597 3 7965 8544 18331
8598 2 18330 18408
8599 10 8479 8480 8543 8544 9000 9038 18331 18400 18409 18652
8600 7 7953 8588 8589 18332 18410 18411 18412
8601 3 8580 18325 18422
8602 2 8587 8612
8603 4 7963 8582 18328 18388
8604 3 7967 8595 18653
8605 3 8596 18330 18397
8606 3 7965 8544 14845
8607 3 18330 18403 18408
8608 4 8589 18324 18412 18422
8609 10 7952 8591 8592 9012 9046 17889 17899 18331 18335 18409
8610 3 8615 8906 18688
8611 13 8493 8498 8499 8500 8584 8585 8586 8618 9710 17894 17900 17902 18713
8612 15 8501 8503 8536 8583 8587 8602 8996 8997 9480 9850 9887 17906 18323 18334 18516
8613 3 8505 9902 17906
8614 11 8500 8502 8504 8593 8594 9027 9028 9864 16545 17894 18713
8615 15 8610 8906 9022 9047 14552 14557 14561 18209 18211 18213 18219 18220 18686 18687 18688
8616 2 8492 18334
8617 4 8533 14829 14830 17900
8618 7 8493 8533 8584 8585 8611 14830 17900
8619 5 8269 8270 8271 8448 8620
8620 15 8271 8280 8281 8282 8448 8469 8619 9348 9349 14854 14859 14863 15413 15438 18809
8621 5 8275 8451 8565 15417 18810
8622 5 10338 15637 15639 18608 18745
8623 19 10301 10302 10303 10304 10305 10339 10349 10375 10377 10441 15638 15640 15641 18604 18607 18616 18622 20212 20213
8624 4 10343 10446 15643 20215
8625 4 10341 10446 20219 20227
8626 1 10413
8627 2 8196 17919
8628 4 7900 9911 17919 19897
8629 2 7904 8197
8630 1 7904
8631 1 7905
8632 3 10420 17931 19924
8633 2 8915 19887
8634 1 7913
8635 2 7914 17936
8636 3 7914 17937 19930
8637 3 8226 8916 17938
8638 2 8225 9973
8639 1 20184
8640 1 20184
8641 1 16542
8642 2 9174 16542
8643 4 8005 8139 8644 20013
8644 4 8005 8139 8643 8646
8645 4 9320 10107 18626 20012
8646 3 8005 8644 9321
8647 4 8008 8141 20016 20088
8648 2 8009 9292
8649 1 9324
8650 2 9293 10119
8651 1 8009
8652 2 8010 9293
8653 2 8010 9298
8654 2 9210 9298
8655 6 8143 8657 8658 9341 9343 10123
8656 2 9210 10125
8657 9 8009 8064 8066 8111 8655 9292 9294 9341 10118
8658 3 8143 8655 9343
8659 4 8144 8145 9302 10126
8660 1 8149
8661 2 8150 9343
8662 3 8024 10136 17967
8663 6 8122 8150 8151 9313 10134 10135
8664 1 8152
8665 2 10142 17968
8666 5 8071 8151 8154 9313 10140
8667 7 8022 8923 10142 10144 10145 17965 17971
8668 8 8134 9154 9234 10141 17966 17969 17973 17974
8669 4 8038 8930 15384 17989
8670 3 8180 17991 17995
8671 18 8037 8932 9181 9314 10155 17975 17978 17982 17984 17985 17987 17990 17992 17993 17994 17997 17998 18001
8672 1 8041
8673 1 8943
8674 3 8944 8945 18017
8675 1 8945
8676 1 8946
8677 4 8193 16593 18018 18022
8678 1 8161
8679 2 10771 10815
8680 5 8946 8947 8948 18022 18023
8681 6 10772 11328 16047 16454 18020 18021
8682 5 8947 16052 16243 16455 18023
8683 2 8685 13849
8684 2 8686 18075
8685 12 8425 8446 8683 10289 10290 13561 13564 13849 13889 13926 18063 18069
8686 6 8412 8684 10290 13561 18063 18075
8687 4 8689 11085 11125 15437
8688 17 7898 8000 8371 8372 8373 8377 8378 8379 8380 8381 8548 8842 10275 15434 18057 18142 18354
8689 16 7898 8383 8384 8385 8687 9409 9875 10275 11085 11125 15436 15437 18060 18062 18147 18148
8690 3 7607 18655 18659
8691 4 7607 8489 18659 18661
8692 4 7587 7604 15653 15654
8693 4 7617 8868 10321 18694
8694 2 8709 8896
8695 2 8709 8899
8696 1 8709
8697 1 8709
8698 7 8522 8708 8711 8713 8899 8907 14742
8699 20 7635 8494 8495 8496 8497 8521 8705 8706 8856 8868 8879 8880 8881 8882 9635 10324 10327 15665 18696 18702
8700 2 8524 8882
8701 2 8884 18555
8702 7 8884 10328 18553 18556 18560 18835 18837
8703 5 8545 8884 10328 10370 18837
8704 4 8707 8893 10390 18694
8705 4 7635 8699 18702 18709
8706 6 7639 8699 8881 8882 18559 18708
8707 7 7628 8704 8891 8893 9628 10389 18694
8708 3 8698 8907 14742
8709 17 8694 8695 8696 8697 8849 8896 8897 8899 8907 14607 14608 14737 14738 14741 14742 18707 18711
8710 5 8901 14740 18706 18707 18714
8711 4 8522 8523 8698 8899
8712 2 8525 8870
8713 4 8522 8698 8907 18711
8714 8 8525 8900 8901 9646 9727 14800 18712 18714
8715 7 7856 7857 8909 15012 15023 15043 15044
8716 2 18789 18795
8717 2 15025 18784
8718 1 15025
8719 2 18787 18795
8720 2 18787 18795
8721 1 8785
8722 1 8775
8723 2 8739 8807
8724 1 8775
8725 3 8746 8789 18554
8726 3 8747 8753 8789
8727 4 8766 8768 19967 20080
8728 5 11321 20083 20084 28635 28665
8729 8 8771 10121 10791 10811 20036 20037 20038 20040
8730 4 8771 10129 10790 10812
8731 2 8771 10813
8732 9 8771 10806 11328 14179 19954 19972 19973 20041 20042
8733 4 8797 16394 16476 18371
8734 4 8797 16391 18371 18394
8735 1 8801
8736 1 8803
8737 5 8803 15509 18446 18448 20094
8738 3 8805 18466 19849
8739 10 8723 8764 8806 8807 10218 10228 18471 18472 18478 19987
8740 14 8764 8806 8807 10228 18465 18467 18474 19768 19771 19772 19773 19865 20058 20095
8741 4 8809 9972 15472 15515
8742 5 7684 9513 9517 9520 9528
8743 6 7686 9516 9528 9860 17903 18543
8744 1 8785
8745 8 8777 8789 9557 9821 9861 15527 20073 20074
8746 5 8725 8789 10207 15528 15548
8747 4 8726 8789 18569 20072
8748 3 8812 9840 16537
8749 2 8789 10083
8750 3 8789 10083 20079
8751 2 8765 8791
8752 3 8785 8816 20081
8753 2 8726 8789
8754 7 8814 8818 9649 16488 16527 16541 16542
8755 1 8768
8756 1 8769
8757 2 8796 9873
8758 3 8794 20009 20087
8759 2 8796 16543
8760 3 8796 14214 14223
8761 1 8796
8762 3 8796 16392 16493
8763 13 8803 8805 9944 9945 15509 15510 15554 18434 18436 18437 18443 20056 20094
8764 6 8739 8740 8806 10228 18465 18471
8765 3 8751 8791 9802
8766 3 8727 19967 20080
8767 4 8792 8816 20003 20129
8768 10 8727 8755 10085 10093 10098 10778 10781 18603 19967 20080
8769 13 8756 9175 9259 9260 10095 10102 10106 10117 18625 20034 20035 20037 20113
8770 1 10142
8771 33 8729 8730 8731 8732 9263 9266 10117 10127 10784 10786 10787 10788 10789 10790 10793 10796 10798 10806 10813 10814 10820 14179 18637 18639 19954 19972 19973 20015 20037 20039 20040 20041 20042
8772 10 8798 14619 16478 16524 16531 18374 18377 18378 18379 20043
8773 5 8799 10824 18389 20043 20115
8774 3 8807 18461 20095
8775 13 8722 8724 8808 9462 9950 10223 15544 18475 18484 19779 19807 20060 20139
8776 1 17903
8777 15 8745 9544 9814 9817 9859 9861 10027 10049 14763 15482 15524 15525 15527 20126 20127
8778 2 9893 17904
8779 3 9823 9897 17905
8780 1 9894
8781 2 8811 9895
8782 4 10085 10804 10817 20080
8783 1 19998
8784 7 9258 9281 10087 10101 10819 15490 20007
8785 16 8721 8744 8752 8816 9792 9831 9840 9860 9898 18549 18563 18566 19999 20004 20078 20081
8786 5 8788 18610 19999 20076 20078
8787 6 8817 9845 10089 15535 20099 20130
8788 4 8786 18610 18613 20078
8789 44 8725 8726 8745 8746 8747 8749 8750 8753 9787 9821 9860 9890 9891 10060 10083 10084 10207 15485 15500 15527 15533 15548 15550 15551 18552 18562 18564 18565 18569 18715 18716 19963 19969 19996 20007 20008 20030 20071 20072 20073 20074 20075 20079 20128
8790 4 8818 16494 16527 20002
8791 22 8751 8765 9802 9831 9840 9841 9853 9870 9898 16490 18581 18588 18592 18593 18609 18612 19998 19999 20000 20001 20005 20077
8792 3 8767 20003 20081
8793 4 9845 19957 20086 20131
8794 9 8758 9137 9246 16527 18623 20009 20010 20082 20087
8795 11 9285 9845 19956 19957 20011 20013 20086 20099 20100 20130 20131
8796 21 8006 8530 8757 8759 8760 8761 8762 9134 9323 9845 9855 9873 9874 10110 10115 14214 14223 16493 16543 18736 20134
8797 7 8733 8734 16394 16476 18371 18394 19976
8798 6 8772 16478 18374 18377 20043 20115
8799 6 8773 10824 10826 19975 20043 20047
8800 11 9882 10213 10802 10827 10828 15507 19745 19837 19839 20055 20118
8801 3 8735 15507 18435
8802 26 8477 10826 15461 15506 16398 16481 16482 16524 18418 18425 19925 19941 19974 19978 19980 19983 20020 20045 20047 20049 20053 20054 20092 20103 20117 20135
8803 7 8736 8737 8763 15509 15554 18436 20094
8804 4 15463 15544 19926 19986
8805 7 8738 8763 15510 18466 19763 19849 20056
8806 6 8739 8740 8764 18467 19987 20095
8807 21 8723 8739 8740 8774 9946 9949 9951 9952 15462 15511 15543 15555 18468 19773 19855 19987 20057 20058 20059 20095 20120
8808 2 8775 19807
8809 32 8741 9960 9961 9965 9967 9969 9971 9975 9983 15455 15463 15464 15468 15471 15472 15492 15493 15512 15515 15537 15539 15560 19990 19991 20025 20066 20067 20096 20098 20124 20136 20139
8810 2 9894 19822
8811 4 8781 9827 9895 9902
8812 7 8748 9838 9840 9868 9897 16486 16537
8813 2 9902 16544
8814 3 8754 16488 16542
8815 3 15491 16497 16542
8816 8 8752 8767 8785 18613 19997 20078 20081 20129
8817 8 8787 9282 9845 9871 9904 15535 16545 20099
8818 11 8103 8754 8790 9199 9295 10123 16494 16498 16527 16542 20002
8819 3 7986 8402 10480
8820 1 8402
8821 1 8405
8822 1 7987
8823 1 7989
8824 1 7871
8825 1 15371
8826 1 7991
8827 2 7990 7992
8828 2 7990 7993
8829 1 7994
8830 1 7995
8831 1 7995
8832 1 7996
8833 1 7997
8834 1 7997
8835 2 7997 15372
8836 2 14565 15376
8837 2 14565 15378
8838 5 7892 14565 15376 15377 15378
8839 4 7823 7892 14566 15378
8840 1 8841
8841 11 8185 8186 8187 8840 8998 10457 13471 18059 18108 18115 18159
8842 3 8688 10275 18142
8843 2 8998 18059
8844 19 8575 8959 8966 8967 8968 8969 8970 8971 8972 8973 8974 8998 9029 9405 9777 15598 15599 15601 18059
8845 3 8872 8905 14516
8846 1 8906
8847 2 8906 9701
8848 1 8897
8849 2 8709 8897
8850 1 8901
8851 2 8901 9726
8852 2 8901 9728
8853 1 8901
8854 1 8901
8855 1 8900
8856 1 8699
8857 3 8886 9577 14676
8858 11 9662 9714 9715 9736 14569 14570 14571 14572 14574 14575 14576
8859 5 9665 9677 9737 14507 14577
8860 5 9666 9670 9678 9717 14578
8861 2 9673 9740
8862 19 8874 8877 8889 9663 9668 9683 9684 9719 9738 14573 14585 14589 14594 14595 14596 14598 14599 14600 14603
8863 2 8877 8889
8864 4 8413 9686 9721 14605
8865 3 8413 9688 14605
8866 2 8878 9626
8867 4 8414 8897 14659 14736
8868 9 7617 8693 8699 8893 9635 10324 14660 18694 18696
8869 3 8897 14610 14736
8870 7 8525 8712 8883 8884 8900 14744 17877
8871 5 8904 8905 9059 14513 14716
8872 8 7714 8845 8905 9052 9060 14516 14716 14794
8873 2 8906 14562
8874 3 8862 9719 9738
8875 2 9687 14605
8876 3 8414 9687 14605
8877 22 7602 7607 8414 8538 8862 8863 8889 9599 9620 9687 9719 9722 10309 10385 13562 14605 14717 14790 14791 14793 14795 18656
8878 10 7628 8866 8891 9620 9626 9628 9722 10309 10310 18679
8879 3 8495 8496 8699
8880 2 8497 8699
8881 2 8699 8706
8882 11 7735 8521 8524 8699 8700 8706 8893 8899 9635 9725 14735
8883 7 7740 8870 8900 9730 14744 17877 17888
8884 14 8510 8527 8545 8701 8702 8703 8870 14744 14745 14746 14803 14804 17863 18837
8885 7 8529 13673 13680 13695 13839 17870 18898
8886 6 7696 8857 9577 9733 14676 14677
8887 10 7695 7698 8412 9576 9577 9578 9582 9734 9735 14683
8888 11 7698 7699 7700 7708 8903 9058 9594 9699 9720 9737 17899
8889 13 8862 8863 8877 9672 9685 9721 14597 14601 14602 14603 14604 14605 14652
8890 3 8906 9053 9701
8891 5 7628 8707 8878 9626 9628
8892 2 8414 14608
8893 15 7732 7733 7734 8704 8707 8868 8882 9628 9635 9696 9725 14660 14735 18689 18694
8894 10 8414 14593 14606 14609 14657 14658 14661 14731 14736 18707
8895 8 7705 9066 9631 14593 14606 14609 14777 18707
8896 16 7729 7730 8414 8694 8709 9628 9691 9696 9723 9724 9745 14607 14608 14733 14734 14737
8897 12 8414 8709 8848 8849 8867 8869 14608 14610 14659 14736 14738 18707
8898 5 7706 9631 9643 14739 18707
8899 11 8524 8695 8698 8709 8711 8882 9725 9745 14737 14741 14742
8900 13 8525 8714 8855 8870 8883 9057 9646 9727 9730 14799 14800 14801 14802
8901 20 8710 8714 8850 8851 8852 8853 8854 9057 9643 9645 9646 9726 9728 9729 13504 14740 14781 17893 18707 18714
8902 5 9057 9697 9732 13692 14189
8903 7 7698 8888 9582 9584 9714 9735 9737
8904 5 7714 8871 9059 14716 17899
8905 7 8845 8871 8872 9742 14513 14516 14716
8906 19 7714 8610 8615 8846 8847 8873 8890 9022 9045 9047 9053 9066 9701 9702 14561 14562 14776 17890 18688
8907 6 8698 8708 8709 8713 14742 18711
8908 1 15023
8909 5 8715 15003 15023 15044 15045
8910 4 9759 9770 9771 10584
8911 9 7716 8574 8577 8998 9049 9050 9759 10585 15600
8912 3 19914 19915 19946
8913 4 19914 19916 19946 19947
8914 3 7908 17932 19947
8915 5 7910 8633 17934 17935 19887
8916 3 8637 17938 19920
8917 4 9978 17942 19908 28571
8918 2 8008 17949
8919 9 8049 8174 9142 17952 17953 17954 17955 17958 17960
8920 1 8142
8921 3 8012 8013 17959
8922 7 8017 8019 8142 8147 9170 9296 10127
8923 10 8014 8015 8016 8018 8022 8667 17959 17961 17962 17965
8924 5 8115 8120 9149 10132 17966
8925 2 8072 9312
8926 2 8030 8079
8927 3 8081 8132 9230
8928 3 8032 17977 17980
8929 3 8081 9235 17981
8930 6 8033 8038 8669 17983 17986 17989
8931 1 9251
8932 5 8039 8671 9314 17994 17998
8933 1 10187
8934 3 8135 9240 17996
8935 4 8090 8092 9239 18004
8936 1 18009
8937 2 8091 18004
8938 4 8180 17995 18000 18002
8939 5 8094 9166 9239 9252 10174
8940 1 8092
8941 9 8041 9253 9317 10188 10200 11292 18005 18009 18015
8942 3 8042 16593 18018
8943 15 8673 9240 9243 10194 10196 10199 11230 11292 18006 18007 18010 18011 18013 18014 18016
8944 4 8674 9190 10186 18017
8945 4 8094 8674 8675 18017
8946 3 8676 8680 18022
8947 3 8680 8682 18023
8948 4 8046 8680 18022 18023
8949 4 7955 7956 9004 18061
8950 2 7967 8961
8951 2 8961 18337
8952 2 7967 8961
8953 2 7967 10254
8954 4 7967 8961 8981 18337
8955 6 8962 9573 10265 10267 10279 10281
8956 2 7967 8964
8957 6 7935 7937 7961 7967 8964 14842
8958 1 7962
8959 4 8844 8967 8998 9403
8960 1 7967
8961 7 7967 8950 8951 8952 8954 8981 18337
8962 2 8955 9573
8963 5 7948 7967 10265 10281 14841
8964 5 7967 8956 8957 8978 14842
8965 1 7962
8966 6 8577 8844 8998 9777 15600 15601
8967 4 8844 8959 8998 9403
8968 2 8844 15601
8969 3 8844 8998 18059
8970 2 8844 18059
8971 1 8844
8972 1 8844
8973 1 8844
8974 4 8579 8844 15598 15599
8975 3 7950 7962 17912
8976 7 7962 7968 8979 8980 14843 14846 17913
8977 4 7922 7955 9031 18061
8978 5 7967 8964 10268 10281 14842
8979 3 7962 8976 8980
8980 4 7962 8976 8979 14846
8981 3 7967 8954 8961
8982 2 7943 9004
8983 1 9031
8984 2 7941 9004
8985 1 9004
8986 1 9004
8987 2 8992 9006
8988 1 9006
8989 5 7671 9006 17880 18366 18368
8990 2 7663 9011
8991 2 9019 18473
8992 6 8987 9006 14535 18314 18315 18366
8993 6 9007 9011 9034 9036 14537 14539
8994 2 9020 18470
8995 6 7649 7675 7853 14706 14878 18098
8996 3 8612 9850 9887
8997 4 8536 8612 9887 17906
8998 24 7716 8841 8843 8844 8911 8959 8966 8967 8969 9775 9776 9777 9778 9779 9780 13471 13745 14413 18055 18056 18059 18138 18140 18143
8999 2 9004 9031
9000 5 8543 8544 8590 8599 17872
9001 2 7955 9031
9002 1 9031
9003 2 14530 18337
9004 20 7941 7943 7944 7955 7956 8949 8982 8984 8985 8986 8999 9031 9032 9033 14530 14827 18313 18316 18363 18646
9005 2 9034 14532
9006 11 7671 8987 8988 8989 8992 9008 9035 14533 14535 14538 18366
9007 4 8993 9034 14532 14537
9008 4 7671 9006 9035 14538
9009 2 7670 9036
9010 7 7967 14543 14769 14782 18319 18326 18340
9011 12 7654 7663 7949 7962 8990 8993 9034 9036 14531 14771 18318 18336
9012 3 8609 9046 18335
9013 3 8580 16535 18422
9014 2 16535 18429
9015 2 9039 18449
9016 2 17899 18449
9017 3 9024 16535 18470
9018 8 9025 9026 9041 9045 17899 18449 18458 18473
9019 3 8991 9045 18473
9020 8 8519 8994 9040 9043 14879 16495 16535 18470
9021 2 9045 18473
9022 2 8615 8906
9023 3 16535 18442 18470
9024 2 9017 18470
9025 2 9018 18449
9026 3 9018 18449 18458
9027 5 8535 8614 9028 9900 16545
9028 5 8594 8614 9027 9864 9900
9029 5 8844 9405 18059 18362 19823
9030 2 19813 19814
9031 9 7922 7955 8977 8983 8999 9001 9002 9004 15435
9032 1 9004
9033 1 9004
9034 6 8993 9005 9007 9011 14531 14532
9035 5 7671 9006 9008 14538 14542
9036 7 7654 7670 8993 9009 9011 14539 14541
9037 5 7707 8581 17897 18650 18653
9038 6 8542 8543 8599 17872 18651 18652
9039 4 9015 9046 17899 18449
9040 2 9020 18470
9041 3 9018 17899 18449
9042 1 18470
9043 6 9020 14545 14546 14879 16495 18470
9044 3 14547 18093 18100
9045 10 7714 8906 9018 9019 9021 9047 14560 17899 18206 18473
9046 5 8609 9012 9039 17899 18449
9047 9 8615 8906 9045 14549 14552 14560 14561 18208 18217
9048 6 9396 9400 9762 9772 10408 14611
9049 8 7716 8911 9050 9401 9402 9748 14413 15282
9050 6 8911 9049 9402 9748 9759 9762
9051 5 7714 9052 9061 9062 14797
9052 8 7714 8872 9051 9060 9061 9062 14794 14797
9053 6 7714 7754 8890 8906 9065 9701
9054 4 9066 14606 14655 14730
9055 5 8413 8414 9063 9066 10573
9056 2 7706 13504
9057 9 8900 8901 8902 9646 9697 9729 9730 9732 13692
9058 7 7689 7698 7699 8888 17873 17875 17889
9059 14 7700 7701 7702 7703 7708 7709 7727 7758 8871 8904 9720 14513 14775 17899
9060 3 7714 8872 9052
9061 3 7714 9051 9052
9062 9 7687 7704 7714 9051 9052 9743 14516 14794 14797
9063 4 8413 8414 9055 14518
9064 6 7687 7704 7714 7754 9701 9743
9065 2 9053 9701
9066 24 7705 7706 8413 8414 8895 8906 9054 9055 9631 9695 9701 9702 9703 9743 10573 10579 14516 14519 14520 14521 14606 14777 17891 17900
9067 2 9072 10616
9068 4 9082 9085 9094 10643
9069 3 7788 9087 9117
9070 2 9119 10757
9071 4 9112 10695 15572 18310
9072 10 9067 9090 9091 9092 9093 10605 10612 10616 18263 18302
9073 7 9086 9116 9129 10641 10657 15588 18302
9074 3 9094 9128 19743
9075 3 15570 15576 18278
9076 16 7719 9085 9087 9094 9100 9117 10644 10646 10651 10653 10656 10658 10669 14697 19748 19841
9077 7 9088 10672 10683 15570 15579 15596 18304
9078 1 15581
9079 11 9088 9122 10668 10677 10681 10683 10689 15580 15593 15597 18305
9080 10 10687 10694 10757 15571 15582 15585 18267 18280 18291 19848
9081 2 9112 10695
9082 14 7719 9068 9094 9127 9128 9129 10624 10625 10633 10637 10643 18253 18302 19739
9083 3 7719 10655 18253
9084 7 7744 7787 10640 10657 15569 15574 15589
9085 4 9068 9076 9094 10643
9086 10 9073 9116 10641 10645 10652 10655 10662 15590 15591 18253
9087 14 7719 9069 9076 9117 9125 10655 10663 10664 10667 10670 10673 10676 15581 15592
9088 6 9077 9079 9122 10683 18282 18304
9089 4 9112 10695 15571 15584
9090 2 9072 10612
9091 2 9072 10616
9092 3 9072 10616 18302
9093 2 9072 10616
9094 13 9068 9074 9076 9082 9085 9128 10637 10644 14787 14789 19743 19838 19841
9095 4 9117 10661 10666 19841
9096 3 9124 19748 19841
9097 1 19841
9098 5 9117 9130 9131 10665 10666
9099 1 9131
9100 7 9076 9117 10660 10669 10674 19748 19841
9101 2 9133 19841
9102 1 9133
9103 1 9133
9104 1 9133
9105 1 9133
9106 1 9133
9107 1 9133
9108 1 9133
9109 4 9133 10680 19763 19841
9110 7 9120 9122 9132 9133 18307 19843 19847
9111 3 19767 19853 20199
9112 14 9071 9081 9089 9119 10695 10757 15571 15572 15583 15584 18291 18310 18760 18772
9113 10 10697 10698 10699 18269 18290 19858 20153 20172 20189 20196
9114 4 20161 20181 20184 20200
9115 3 10657 15587 18302
9116 5 9073 9086 9129 10655 18253
9117 11 7788 9069 9076 9087 9095 9098 9100 9125 9131 10666 19841
9118 1 9133
9119 4 9070 9112 10757 18291
9120 5 9110 18307 19759 19762 19847
9121 1 19853
9122 23 7711 9079 9088 9110 9126 9131 10677 10678 10679 10681 10682 10686 10688 10689 10690 18282 18305 18307 18308 19767 19805 19852 19854
9123 4 20155 20161 20175 20190
9124 2 9096 19841
9125 2 9087 9117
9126 1 9122
9127 3 9082 19739 19835
9128 11 9074 9082 9094 10623 10625 10635 10636 10637 19742 19743 19836
9129 5 9073 9082 9116 18253 18302
9130 1 9098
9131 4 9098 9099 9117 9122
9132 2 9110 19843
9133 16 9101 9102 9103 9104 9105 9106 9107 9108 9109 9110 9118 10684 10685 19763 19841 19844
9134 3 8796 10115 16493
9135 5 8025 8175 9337 10151 16406
9136 3 9283 20013 20102
9137 4 8794 18623 20009 20082
9138 2 18623 20009
9139 10 9203 9213 9246 17948 18623 18734 20009 20014 20087 20089
9140 6 8011 9207 10115 10122 16400 16493
9141 3 8144 9210 10126
9142 11 8049 8919 9213 10132 17953 17955 17956 17957 17958 17960 17963
9143 4 9210 9212 9302 10126
9144 5 9210 9227 9298 9302 10131
9145 2 9227 10151
9146 18 8007 8011 8023 8175 9207 9209 9227 9293 9300 9337 10115 10119 10122 10124 10151 16402 16406 20090
9147 2 9227 10151
9148 3 9227 9312 10131
9149 9 8117 8120 8924 9234 10130 10132 10138 17964 17966
9150 2 9313 10168
9151 2 9227 10151
9152 6 8119 9216 9303 9313 10168 16405
9153 2 9227 10151
9154 4 8668 9234 10141 17973
9155 4 9230 9313 10143 10154
9156 4 9227 9312 10151 15380
9157 3 9231 10152 15380
9158 3 8077 9312 15380
9159 4 8134 9234 10156 17973
9160 8 8031 9231 9250 10151 10152 10159 11220 15380
9161 7 8034 8037 8039 9233 9314 10164 10820
9162 1 11220
9163 1 11220
9164 3 9240 10184 15385
9165 1 9242
9166 3 8094 8161 8939
9167 2 8136 9242
9168 5 9240 9243 9335 10194 11296
9169 3 9282 10096 20099
9170 7 8017 8019 8024 8922 9307 10127 10136
9171 2 9258 10092
9172 2 10098 10781
9173 7 10091 10098 10776 10777 10778 10779 10780
9174 4 8642 10100 16498 16542
9175 6 8769 9260 10102 10106 10117 10783
9176 4 8003 9213 10109 17948
9177 4 9208 10127 10765 10790
9178 5 9234 9326 10132 10168 20017
9179 2 10157 11182
9180 1 8034
9181 5 8037 8671 10155 10164 10820
9182 1 8034
9183 2 8034 10164
9184 2 8086 9235
9185 5 8083 9239 9313 9316 10182
9186 3 9240 10183 15385
9187 3 10187 10193 10767
9188 3 9345 10187 10767
9189 3 8136 10187 10797
9190 4 8944 9239 10186 18017
9191 2 9280 10201
9192 2 8045 10807
9193 4 8045 10806 10807 11328
9194 3 8045 10202 10807
9195 3 9347 10803 18573
9196 3 9197 10770 18573
9197 3 9196 10770 18573
9198 3 9246 18621 20010
9199 3 8818 10123 16498
9200 2 10132 19971
9201 1 10115
9202 7 8142 9261 9265 9287 9291 10112 10117
9203 5 9139 10132 19971 20014 20089
9204 1 10132
9205 2 9293 10124
9206 3 8142 9296 10117
9207 5 9140 9146 10115 10122 20090
9208 3 9177 10127 10790
9209 2 9146 10124
9210 10 8654 8656 9141 9143 9144 9297 9298 9302 10125 10126
9211 3 8145 9302 10126
9212 3 9143 9302 10126
9213 14 8049 8104 9139 9142 9176 9286 9290 9322 10109 10132 17947 17948 17950 20014
9214 6 10168 16403 16404 16405 16494 18636
9215 3 9304 10168 16404
9216 1 9152
9217 2 8020 10151
9218 2 8020 10151
9219 3 8148 9313 10134
9220 3 8124 9269 10131
9221 4 9308 9309 10147 10793
9222 2 9309 10147
9223 1 9312
9224 2 9310 10155
9225 5 8126 8155 9311 10147 10155
9226 2 9310 10155
9227 16 8070 8158 9144 9145 9146 9147 9148 9151 9153 9156 9298 9301 9312 10124 10131 10151
9228 6 8075 8079 9312 9344 10150 17976
9229 3 9312 9331 17976
9230 7 8074 8081 8132 8927 9155 10143 10154
9231 5 9157 9160 10152 10159 15380
9232 1 10172
9233 3 8037 9161 10164
9234 23 8035 8036 8668 9149 9154 9159 9178 9247 9251 9328 10132 10138 10141 10156 10163 10167 10168 10169 10170 17966 17969 17973 17988
9235 10 8081 8086 8089 8171 8929 9184 9313 10171 10173 17981
9236 2 9252 10176
9237 2 9252 10172
9238 5 8089 8172 9313 10173 10182
9239 17 8083 8090 8092 8094 8935 8939 9185 9190 9252 9316 10172 10176 10180 10185 10186 18003 18017
9240 16 8135 8934 8943 9164 9168 9186 10183 10184 10194 11186 11296 15385 17996 18006 18007 18010
9241 6 9253 10189 10191 10195 16593 18012
9242 6 8136 9165 9167 9346 10187 18008
9243 5 8943 9168 9335 10194 10199
9244 1 20081
9245 3 9284 17946 20008
9246 7 8794 9139 9198 17948 18621 18623 20010
9247 3 9234 9329 10168
9248 4 9332 9333 10168 10172
9249 3 9313 9330 10172
9250 5 9160 10159 10160 11220 15380
9251 6 8931 9234 10156 10165 10167 17979
9252 8 8939 9236 9237 9239 10172 10174 10176 10181
9253 9 8941 9241 9317 10190 10191 10192 10197 16593 18009
9254 3 10070 10074 10774
9255 3 10085 10091 10778
9256 2 10087 15490
9257 2 10098 10778
9258 9 8056 8784 9171 10090 10092 10097 10101 10782 10819
9259 3 8058 8769 10102
9260 4 8769 9175 10102 10106
9261 4 9202 9287 10117 10783
9262 2 10117 10783
9263 2 8771 10117
9264 2 10117 10785
9265 2 9202 10117
9266 3 8771 10117 10785
9267 2 10117 10788
9268 2 9302 10131
9269 4 8124 9220 9312 10131
9270 1 10193
9271 3 10193 10767 10797
9272 3 8044 10193 10806
9273 4 8044 10201 10202 10806
9274 3 8043 10202 10806
9275 2 8044 10201
9276 2 8043 10806
9277 1 8044
9278 1 8044
9279 1 8044
9280 3 8044 9191 10201
9281 4 8784 9336 10101 20007
9282 4 8817 9169 10096 20099
9283 4 9136 10096 20013 20102
9284 5 9245 10104 17946 20008 20088
9285 3 8795 9321 20013
9286 4 8097 9213 17947 17948
9287 5 9202 9261 10112 10783 20132
9288 2 8101 9321
9289 5 8100 9319 9324 20011 20134
9290 4 9213 9322 10109 17948
9291 2 9202 10117
9292 8 8009 8064 8066 8648 8657 9320 9340 10118
9293 7 8010 8650 8652 9146 9205 10119 10124
9294 8 8107 8111 8170 8657 9340 9341 10118 10123
9295 10 8103 8106 8110 8818 9325 9343 10120 10123 10134 16494
9296 6 8142 8922 9206 10117 10127 10788
9297 2 9210 10125
9298 7 8010 8653 8654 9144 9210 9227 10124
9299 3 8113 9343 10134
9300 2 8023 9146
9301 2 9227 10131
9302 11 8145 8149 8659 9143 9144 9210 9211 9212 9268 10126 10131
9303 1 9152
9304 3 9215 10168 16404
9305 2 8119 10168
9306 4 8121 10136 10765 10790
9307 6 8067 9170 10127 10128 10136 10765
9308 3 9221 10147 10793
9309 4 9221 9222 10147 10793
9310 4 9224 9226 10155 10820
9311 6 8078 8126 9225 10147 10155 10820
9312 34 8030 8072 8073 8079 8082 8088 8124 8125 8127 8156 8157 8925 9148 9156 9158 9223 9227 9228 9229 9269 9331 9344 10131 10137 10139 10148 10149 10150 10158 10161 10162 10166 15380 17976
9313 33 8071 8074 8081 8083 8109 8110 8112 8114 8131 8151 8154 8663 8666 9150 9152 9155 9185 9219 9235 9238 9249 9342 10120 10134 10140 10143 10154 10168 10172 10173 10182 16405 16494
9314 6 8037 8039 8671 8932 9161 17992
9315 1 8039
9316 8 8040 8090 8172 9185 9239 10182 10185 18004
9317 7 8941 9253 10190 10200 16579 16593 18015
9318 3 8061 9338 10123
9319 2 8100 9289
9320 12 8096 8137 8645 9292 9340 10100 10107 10123 16498 18626 20012 20101
9321 8 8005 8101 8139 8646 9285 9288 10108 20013
9322 5 8104 9213 9290 17948 17950
9323 4 8006 8796 10113 20134
9324 6 8649 9289 10113 10114 10116 20134
9325 3 8110 9295 10134
9326 2 9178 10132
9327 1 10168
9328 2 9234 10168
9329 2 9247 10168
9330 2 9249 10172
9331 4 9229 9312 10158 17976
9332 5 8128 8133 9248 10168 10172
9333 4 8131 9248 10168 10172
9334 7 8087 8088 8192 10166 15380 15381 15382
9335 5 9168 9243 10199 11230 11296
9336 3 9281 10101 20007
9337 5 8175 9135 9146 16402 16406
9338 4 8061 8099 9318 10123
9339 4 8062 8063 8105 10123
9340 8 8065 8096 8102 9292 9294 9320 10118 10123
9341 7 8107 8108 8111 8655 8657 9294 10123
9342 4 8114 8146 9313 10134
9343 13 8068 8113 8116 8118 8143 8150 8655 8658 8661 9295 9299 10123 10134
9344 3 9228 9312 10150
9345 2 9188 10187
9346 2 9242 10187
9347 3 9195 10803 18573
9348 2 8448 8620
9349 1 8620
9350 2 10404 15418
9351 3 10404 10405 18805
9352 4 10403 11087 15403 15416
9353 2 10405 11086
9354 1 7881
9355 1 7881
9356 1 7881
9357 1 7881
9358 1 7881
9359 1 7881
9360 1 7881
9361 7 7876 7878 7880 11087 11091 15395 18184
9362 2 15418 18806
9363 1 7881
9364 1 7881
9365 1 7881
9366 1 7881
9367 1 15418
9368 1 15412
9369 1 15418
9370 1 7881
9371 3 15412 15418 18355
9372 1 7881
9373 1 7883
9374 1 18808
9375 2 15441 18808
9376 1 15441
9377 8 7879 7880 7882 7884 11095 11104 15428 18180
9378 1 15441
9379 1 15428
9380 1 15439
9381 1 15439
9382 2 8572 9768
9383 1 9768
9384 1 8579
9385 1 10412
9386 2 8573 10412
9387 1 9768
9388 3 9406 11125 15437
9389 1 18750
9390 1 9768
9391 3 9768 10603 18750
9392 3 8000 8548 18353
9393 1 15286
9394 1 15286
9395 1 15286
9396 1 9048
9397 1 15286
9398 1 15286
9399 1 9762
9400 2 9048 9762
9401 2 9049 15282
9402 3 9049 9050 9762
9403 2 8959 8967
9404 3 7998 7999 15446
9405 6 8844 9029 9561 15599 16528 18362
9406 2 9388 11125
9407 5 15392 15396 18196 18198 18352
9408 4 15396 15397 18198 18352
9409 2 8689 15436
9410 2 9881 18285
9411 2 9880 19833
9412 1 19871
9413 1 19872
9414 1 19738
9415 1 19740
9416 1 19739
9417 2 14693 19740
9418 1 19841
9419 1 19748
9420 2 19841 20119
9421 1 19747
9422 4 9882 10214 19840 19841
9423 3 10216 19752 19841
9424 1 19763
9425 1 19763
9426 1 19763
9427 6 7710 7712 14648 14663 18309 19691
9428 2 7711 14765
9429 1 14648
9430 2 19767 19853
9431 2 19763 19850
9432 1 14765
9433 2 19766 19855
9434 1 14757
9435 1 14757
9436 1 14757
9437 3 14765 14817 19852
9438 1 19855
9439 2 19766 19855
9440 1 19855
9441 3 14718 19769 19865
9442 1 19769
9443 5 7713 14817 14824 19697 19854
9444 4 14757 14825 19696 19858
9445 1 19769
9446 1 19698
9447 2 19769 20174
9448 3 19697 19699 19770
9449 2 19698 19865
9450 1 19773
9451 1 19773
9452 2 19700 19773
9453 2 19700 19773
9454 2 19774 19865
9455 1 19700
9456 2 19700 19773
9457 3 10244 19699 19865
9458 6 10245 14758 14826 19696 19776 19858
9459 1 10245
9460 1 10244
9461 1 10245
9462 3 8775 10223 19807
9463 2 19709 19782
9464 1 19709
9465 3 18508 19704 19865
9466 5 19701 19702 19703 19709 19807
9467 2 19705 19807
9468 1 19709
9469 1 19709
9470 1 10223
9471 2 19705 19807
9472 1 19865
9473 1 19865
9474 2 19807 19865
9475 2 10223 19865
9476 1 19709
9477 2 19807 19865
9478 4 19783 19820 20161 20179
9479 1 19709
9480 1 8612
9481 1 19785
9482 2 19807 19865
9483 2 10224 19865
9484 1 19785
9485 3 19709 19807 19859
9486 1 19784
9487 3 19708 19784 20067
9488 2 19709 19807
9489 1 19711
9490 3 9630 19711 19715
9491 2 9629 19713
9492 2 19717 19785
9493 4 19712 19729 19807 19865
9494 1 19717
9495 4 10225 19714 19784 19865
9496 1 19715
9497 1 19715
9498 1 19717
9499 1 19717
9500 2 19787 19865
9501 2 19715 19717
9502 1 19720
9503 1 19717
9504 2 19724 19865
9505 1 19716
9506 1 19865
9507 8 9705 9810 9850 9885 9886 9887 18085 18761
9508 1 19865
9509 2 19723 19865
9510 3 19719 19720 19865
9511 2 19723 19794
9512 1 19799
9513 2 7684 8742
9514 1 19723
9515 3 9889 19724 19865
9516 2 7686 8743
9517 1 8742
9518 1 19723
9519 1 9889
9520 1 8742
9521 3 9811 19723 19730
9522 1 9812
9523 2 9800 9889
9524 1 9812
9525 1 9889
9526 1 9889
9527 2 19799 19864
9528 6 7684 8742 8743 9860 18543 19795
9529 2 9812 9889
9530 1 19866
9531 1 19724
9532 1 9889
9533 1 19799
9534 3 9811 9859 19865
9535 2 19799 19866
9536 1 9800
9537 2 7685 9851
9538 1 9861
9539 2 19799 19866
9540 2 9800 9889
9541 2 19799 19866
9542 5 9815 9851 9889 19809 19810
9543 2 9787 9800
9544 5 8777 9859 14763 19725 19865
9545 2 9815 9905
9546 1 19799
9547 2 9787 9800
9548 1 9787
9549 1 19799
9550 1 19800
9551 1 19799
9552 1 19799
9553 1 19726
9554 3 9817 9861 19797
9555 2 9786 9861
9556 1 9821
9557 1 8745
9558 1 9897
9559 1 9840
9560 2 9840 9897
9561 3 9405 15599 16528
9562 4 10274 10276 10287 19733
9563 2 15599 16523
9564 8 10274 10287 15599 16523 16528 19733 19814 19824
9565 2 16523 19733
9566 2 7944 7967
9567 2 10287 19733
9568 2 7694 8416
9569 1 14666
9570 9 7694 7696 7945 7958 8412 8416 14666 14806 14807
9571 3 7696 7959 14667
9572 3 7947 14666 14670
9573 2 8955 8962
9574 2 7696 8512
9575 4 7696 9733 14675 14785
9576 2 8412 8887
9577 13 7688 7695 7696 7698 8412 8857 8886 8887 14676 14677 14679 14683 17898
9578 1 8887
9579 1 19871
9580 1 19871
9581 1 19871
9582 3 8887 8903 9735
9583 1 19737
9584 2 7698 8903
9585 2 9694 19744
9586 3 10829 15553 20119
9587 1 19841
9588 3 15552 19841 20119
9589 3 14695 14696 19841
9590 2 19748 19841
9591 6 9694 17853 17854 18265 18303 19744
9592 2 17854 18265
9593 1 19748
9594 2 7708 8888
9595 2 17855 18265
9596 3 17854 17857 18265
9597 3 17859 18266 20195
9598 1 19841
9599 2 8877 9719
9600 1 19843
9601 1 19843
9602 2 19758 19847
9603 1 19763
9604 1 19763
9605 1 19763
9606 1 19853
9607 2 19769 19853
9608 1 19847
9609 1 19769
9610 1 19769
9611 3 14715 19761 19847
9612 2 19761 19847
9613 2 19769 19851
9614 1 19855
9615 1 19855
9616 1 19855
9617 1 19855
9618 1 19855
9619 2 19775 19865
9620 4 8877 8878 9722 10309
9621 3 10244 18508 19865
9622 2 10222 18501
9623 4 10232 18508 19727 19865
9624 1 19782
9625 3 9810 9857 9885
9626 3 8866 8878 8891
9627 1 19709
9628 10 8414 8707 8878 8891 8893 8896 9696 9722 9723 9724
9629 2 9491 19713
9630 6 9490 14761 19710 19711 19715 19806
9631 6 7705 7706 8895 8898 9066 18707
9632 1 19863
9633 2 7684 19862
9634 2 7686 19863
9635 5 8699 8868 8882 8893 10324
9636 2 7686 17901
9637 3 17901 19726 19864
9638 1 19799
9639 1 19799
9640 1 19799
9641 1 19799
9642 1 19726
9643 5 7706 8898 8901 17893 18707
9644 1 7686
9645 3 8901 14781 17893
9646 4 8714 8900 8901 9057
9647 1 9840
9648 2 9830 9902
9649 1 8754
9650 2 13504 17895
9651 4 9844 9873 13504 17895
9652 1 16533
9653 1 16533
9654 6 9847 14626 16533 19816 19817 19827
9655 1 9847
9656 1 16533
9657 2 17860 19750
9658 4 17860 19750 19756 19819
9659 1 19756
9660 1 19756
9661 1 19692
9662 3 8858 14572 14575
9663 3 8862 14573 14585
9664 1 9717
9665 4 8859 9737 14507 14577
9666 4 8860 9678 9717 14578
9667 3 9717 9739 14507
9668 2 8862 14585
9669 4 9678 14579 14580 14581
9670 8 8860 9678 9717 14515 14582 14583 14584 14587
9671 6 9682 9718 14508 14509 14510 14588
9672 7 8413 8889 9721 14511 14514 14592 14597
9673 9 8413 8418 8861 9680 9718 9740 14514 14586 14591
9674 2 9716 14569
9675 3 9714 9737 14574
9676 3 9716 14569 14573
9677 4 8859 9737 14574 14577
9678 6 8860 9666 9669 9670 14578 14579
9679 2 9739 14515
9680 2 9673 9718
9681 2 9741 14515
9682 6 8413 8418 9671 9718 14510 14512
9683 4 8862 14589 14590 14594
9684 3 8862 14595 14598
9685 3 8889 9721 14604
9686 2 8864 14605
9687 5 8414 8875 8876 8877 14605
9688 2 8865 14605
9689 3 8411 14518 14605
9690 1 17888
9691 3 8896 9696 9745
9692 1 9709
9693 4 7659 7669 7672 14637
9694 11 7669 9585 9591 9700 17853 17854 17856 17857 17858 18266 19744
9695 2 7706 9066
9696 13 7731 7732 7733 7734 8893 8896 9628 9691 9724 9725 9745 14732 18689
9697 14 8902 9057 9730 9732 13503 13668 13669 13693 13694 13695 14189 14522 17870 17888
9698 7 7671 9880 18260 18303 19744 19818 19833
9699 5 7699 8888 17866 17889 17899
9700 11 7659 7660 7669 7673 7682 9694 9849 14706 14708 18266 18306
9701 8 8847 8890 8906 9053 9064 9065 9066 9743
9702 5 8906 9066 17890 17891 17900
9703 7 7706 9066 9710 13504 14521 14778 17900
9704 4 7706 13504 14779 17893
9705 8 9507 9862 9886 9887 17906 18762 18763 18772
9706 2 17894 17902
9707 4 7762 13504 14835 17894
9708 3 10580 13504 17893
9709 13 7763 7764 7765 7766 9692 10581 13504 14839 14840 17883 17894 17908 18777
9710 9 7762 8611 9703 13504 14835 14847 17894 17900 17902
9711 2 8412 9714
9712 2 9730 14748
9713 2 9730 14748
9714 11 8412 8858 8903 9675 9711 9735 9736 9737 14505 14506 14574
9715 4 8858 9736 14504 14569
9716 9 9674 9676 9719 9736 9738 14503 14504 14569 14573
9717 7 8860 9664 9666 9667 9670 9739 14515
9718 7 8418 9671 9673 9680 9682 14586 14588
9719 11 8412 8862 8874 8877 9599 9716 9736 9738 13562 14503 14790
9720 10 7700 8413 8888 9059 9737 9739 9741 14507 14513 14515
9721 7 8413 8864 8889 9672 9685 14604 14605
9722 5 8414 8877 8878 9620 9628
9723 5 7729 7730 8414 8896 9628
9724 3 8896 9628 9696
9725 7 7735 8882 8893 8899 9696 9745 14735
9726 2 8851 8901
9727 2 8714 8900
9728 4 8852 8901 13504 17893
9729 4 8901 9057 13504 13692
9730 10 7740 8883 8900 9057 9697 9712 9713 14522 14748 17888
9731 1 13692
9732 3 8902 9057 9697
9733 5 7696 8412 8886 9575 14677
9734 1 8887
9735 5 8412 8887 8903 9582 9714
9736 7 8412 8858 9714 9715 9716 9719 14504
9737 11 8859 8888 8903 9665 9675 9677 9714 9720 14505 14507 14574
9738 5 8862 8874 9716 9719 14573
9739 6 9667 9679 9717 9720 14507 14515
9740 3 8418 8861 9673
9741 4 8413 9681 9720 14515
9742 4 8413 8905 14513 14516
9743 6 7704 9062 9064 9066 9701 14516
9744 8 8414 10575 14520 14606 14725 14727 14728 14729
9745 6 8896 8899 9691 9696 9725 14737
9746 1 10588
9747 2 8572 10591
9748 2 9049 9050
9749 2 10408 14611
9750 3 9765 9771 10584
9751 2 8572 10588
9752 4 8572 10411 10588 10591
9753 6 9768 10411 10589 10590 10591 10593
9754 8 9768 10411 10592 10593 10594 10595 14616 18748
9755 2 9768 10595
9756 2 9768 10596
9757 6 9768 10595 10596 14618 18748 18749
9758 2 9768 10596
9759 8 8910 8911 9050 9762 9769 9771 10584 10585
9760 4 8572 9767 10585 10588
9761 1 10408
9762 14 9048 9050 9399 9400 9402 9759 9769 9772 9773 10407 10408 10582 10583 10584
9763 2 10408 10584
9764 4 10409 10584 14612 14613
9765 6 9750 9771 9774 10411 10584 10585
9766 6 9774 10409 10411 10584 10586 10587
9767 4 9760 10411 10585 10588
9768 25 8572 9382 9383 9387 9390 9391 9753 9754 9755 9756 9757 9758 10591 10593 10595 10596 10597 10598 10599 10600 10601 10602 10603 18749 18750
9769 3 9759 9762 10584
9770 2 8910 10584
9771 6 8910 9750 9759 9765 10584 10585
9772 4 9048 9762 10408 10582
9773 1 9762
9774 5 9765 9766 10411 10584 10587
9775 3 8998 18059 18139
9776 1 8998
9777 3 8844 8966 8998
9778 2 8998 18056
9779 1 8998
9780 1 8998
9781 2 9880 18383
9782 2 9857 9885
9783 2 9810 9885
9784 4 9889 19720 19792 19865
9785 5 9811 9814 9858 9859 20140
9786 2 9555 9861
9787 9 8789 9543 9547 9548 9800 9815 9821 9890 9891
9788 1 9902
9789 1 9840
9790 2 9840 9897
9791 2 9840 9897
9792 4 8785 9824 9840 9898
9793 2 9902 18766
9794 1 9902
9795 6 9832 9834 9863 9865 9896 9900
9796 1 9902
9797 4 9837 9873 18768 18778
9798 2 9842 9873
9799 4 9812 9860 9889 19865
9800 14 7685 9523 9536 9540 9543 9547 9787 9815 9821 9861 9888 9889 19731 19865
9801 6 9845 9855 9871 9873 9904 18769
9802 5 8765 8791 9840 9853 9867
9803 5 10262 10269 10285 10604 15595
9804 3 9846 9856 16532
9805 5 9881 14626 14632 14633 19817
9806 8 9876 9877 14681 17896 18232 18263 18297 18298
9807 5 9878 9881 10282 10287 18285
9808 1 9881
9809 1 9882
9810 6 9507 9625 9783 9857 9885 18761
9811 8 9521 9534 9785 9858 9859 19723 19730 19865
9812 6 9522 9524 9529 9799 9860 9889
9813 1 9861
9814 5 8777 9785 9859 20126 20140
9815 9 7685 9542 9545 9787 9800 9860 9890 9905 19810
9816 1 9861
9817 6 8777 9554 9861 14763 19797 20127
9818 2 9862 9902
9819 3 7848 9902 19822
9820 2 9902 18756
9821 8 8745 8789 9556 9787 9800 9861 9891 20073
9822 1 9902
9823 2 8779 9897
9824 2 9792 9898
9825 1 9864
9826 1 9902
9827 2 8811 9902
9828 2 9902 18766
9829 1 9902
9830 5 9648 9902 18755 18776 18780
9831 4 8785 8791 9898 19999
9832 4 9795 9865 9896 16545
9833 2 9853 9867
9834 4 9795 9865 9900 16545
9835 6 7641 9864 9866 9900 14805 18730
9836 2 9902 18766
9837 3 9797 9873 18768
9838 1 8812
9839 4 9873 9899 9903 16545
9840 22 8748 8785 8791 8812 9559 9560 9647 9789 9790 9791 9792 9802 9853 9860 9867 9870 9897 9898 16525 16537 17882 17903
9841 8 8791 9870 16487 16490 16525 16526 16540 20077
9842 4 9798 9869 9873 18730
9843 3 9904 16539 16545
9844 3 9651 9873 17895
9845 14 8787 8793 8795 8796 8817 9801 9855 9871 9874 19956 20086 20130 20131 20134
9846 3 9804 9856 16532
9847 7 9654 9655 9856 10824 19735 19816 19828
9848 4 9881 14621 14626 14686
9849 9 7675 7683 9700 9883 14708 14878 18306 18333 19856
9850 4 8612 8996 9507 9887
9851 4 7685 9537 9542 9889
9852 2 9902 18710
9853 7 8791 9802 9833 9840 9867 9898 18570
9854 6 10565 18312 18752 18756 18772 18773
9855 5 8796 9801 9845 9873 18769
9856 14 9804 9846 9847 10287 10824 14630 14631 14671 16532 19688 19735 19816 19826 19828
9857 11 9625 9782 9810 9884 9885 14818 18214 18291 18761 18772 19856
9858 9 9785 9811 18536 18540 18541 19723 19794 20070 20140
9859 7 8777 9534 9544 9785 9811 9814 19865
9860 20 8743 8785 8789 9528 9799 9812 9815 9840 9889 9890 9905 14767 14821 14822 17882 17903 18543 19795 19810 19865
9861 15 8745 8777 9538 9554 9555 9786 9800 9813 9816 9817 9821 14762 14763 19797 19865
9862 8 7736 9705 9818 9902 14780 17906 18772 18773
9863 4 9795 9896 9900 16545
9864 11 7641 7662 8593 8594 8614 9028 9825 9835 9900 17894 17907
9865 4 9795 9832 9834 16545
9866 4 7641 9835 17908 18730
9867 4 9802 9833 9840 9853
9868 1 8812
9869 2 9842 18730
9870 5 8791 9840 9841 16525 18579
9871 4 8817 9801 9845 9904
9872 7 7715 9903 18759 18767 18768 18769 18778
9873 29 8530 8757 8796 9651 9797 9798 9801 9837 9839 9842 9844 9855 9899 9901 9903 13504 14223 16491 16543 16545 17895 17908 18730 18759 18767 18768 18769 18777 18778
9874 3 8796 9845 20134
9875 8 8689 9906 10275 10287 15436 18148 18256 18294
9876 17 9806 9906 10262 10266 10269 14665 14808 14809 15595 17896 18226 18232 18256 18257 18263 18295 18298
9877 7 9806 17896 18297 18375 18382 19829 19832
9878 3 9807 10282 18285
9879 3 18235 18263 19832
9880 17 7671 9411 9698 9781 10608 14634 17871 17880 18238 18260 18276 18277 18376 18383 19830 19831 19833
9881 19 9410 9805 9807 9808 9848 10287 14626 14627 14686 14687 14688 14689 14690 18236 18262 18285 18302 19739 19817
9882 10 8800 9422 9809 10213 19745 19747 19839 19840 19841 20055
9883 3 9849 14878 18333
9884 4 9857 18214 18333 19856
9885 17 9507 9625 9782 9783 9810 9857 14550 14818 18078 18085 18087 18101 18102 18203 18204 18214 18215
9886 4 9507 9705 18761 18772
9887 8 8612 8996 8997 9507 9705 9850 17906 18762
9888 4 9800 19724 19731 19865
9889 24 7685 9515 9519 9523 9525 9526 9529 9532 9540 9542 9784 9799 9800 9812 9851 9860 19720 19724 19731 19792 19809 19810 19821 19865
9890 4 8789 9787 9815 9860
9891 3 8789 9787 9821
9892 2 17903 19868
9893 2 8778 19869
9894 4 8780 8810 14823 19822
9895 2 8781 8811
9896 4 9795 9832 9863 16545
9897 11 8779 8812 9558 9560 9790 9791 9823 9840 17882 17903 17905
9898 7 8785 8791 9792 9824 9831 9840 9853
9899 3 9839 9873 16545
9900 11 8535 9027 9028 9795 9834 9835 9863 9864 14805 16545 18730
9901 2 9873 16545
9902 57 7739 7784 7785 7847 7848 8507 8526 8613 8811 8813 9648 9788 9793 9794 9796 9818 9819 9820 9822 9826 9827 9828 9829 9830 9836 9852 9862 14743 14837 14838 16483 16489 16496 16536 16538 16542 16544 17906 18710 18717 18718 18719 18720 18721 18722 18755 18756 18765 18766 18773 18774 18775 18776 18779 18780 19870 20201
9903 7 7715 9839 9872 9873 16539 16545 18768
9904 8 7715 8817 9801 9843 9871 16539 16545 18769
9905 3 9545 9815 9860
9906 4 9875 9876 14665 18256
9907 2 10413 19897
9908 2 10413 19897
9909 1 19897
9910 3 8196 19895 19897
9911 4 7900 8628 17920 19897
9912 2 10414 19897
9913 2 17920 19897
9914 1 19976
9915 2 10414 19897
9916 6 10414 19896 19897 19902 19940 19976
9917 2 10414 19902
9918 3 7900 17920 19897
9919 2 10414 19902
9920 2 17921 19902
9921 2 10414 19902
9922 3 17921 17922 19902
9923 2 10415 19902
9924 4 10415 19899 19900 19902
9925 5 19898 19902 19940 19945 20135
9926 2 8197 19902
9927 2 8206 19902
9928 2 8206 19902
9929 2 19945 20135
9930 4 8206 19902 19903 19945
9931 1 19945
9932 2 19904 20054
9933 3 8206 19903 19945
9934 2 10417 19904
9935 2 15461 15536
9936 1 19915
9937 1 19915
9938 2 10422 19915
9939 1 19916
9940 2 8477 15461
9941 2 19916 19946
9942 4 10773 19915 19916 19946
9943 2 20058 20120
9944 2 8763 20056
9945 2 8763 15509
9946 1 8807
9947 2 15543 15555
9948 3 15463 19986 20019
9949 2 8807 15555
9950 2 8775 15544
9951 1 8807
9952 1 8807
9953 2 8219 19917
9954 2 10424 19917
9955 4 7911 7913 17936 19887
9956 3 8219 10424 19917
9957 2 19988 20096
9958 4 10205 15463 20019 20096
9959 4 15492 15493 20136 20139
9960 2 8809 15537
9961 5 8809 15464 15465 15493 20124
9962 1 10229
9963 3 15539 15546 20096
9964 5 15513 19989 20063 20137 20138
9965 2 8809 15537
9966 3 15466 15513 15539
9967 2 8809 15537
9968 3 15449 15469 20065
9969 5 8809 15468 15471 15561 20025
9970 4 8226 15454 15469 19932
9971 2 8809 20066
9972 2 8741 15515
9973 3 8225 8638 19908
9974 2 20066 20122
9975 3 8809 20067 20123
9976 2 10426 19908
9977 2 8225 19908
9978 2 8917 19908
9979 2 10426 19908
9980 4 15455 15502 15540 15560
9981 2 17942 19908
9982 5 15456 15470 15516 15560 20065
9983 1 8809
9984 4 15494 15521 15559 15561
9985 5 8226 10427 15560 19873 19942
9986 1 15496
9987 3 17942 19908 19922
9988 2 15496 15503
9989 1 15472
9990 2 15497 15560
9991 2 15497 19952
9992 5 15496 15503 15519 15561 19961
9993 3 19874 19922 19943
9994 2 15497 15560
9995 5 15473 15497 15503 15504 15560
9996 2 17944 19889
9997 2 17943 28752
9998 3 17941 19889 19922
9999 5 15458 15473 15503 15504 15519
10000 3 10429 10430 28752
10001 2 15474 15521
10002 1 15521
10003 2 15517 15561
10004 1 19936
10005 1 19936
10006 1 19995
10007 2 17945 28752
10008 2 15521 15561
10009 6 15450 15474 15518 15521 15541 20098
10010 1 15521
10011 5 15458 15459 15476 15504 15547
10012 1 15521
10013 1 15521
10014 1 15476
10015 1 15520
10016 1 15521
10017 2 15475 15521
10018 3 15487 15520 15521
10019 1 19995
10020 2 15451 15476
10021 5 15521 15522 20070 20098 20141
10022 1 15522
10023 2 15452 15476
10024 1 15487
10025 2 19995 20069
10026 2 15522 20070
10027 3 8777 15525 20126
10028 1 19995
10029 1 15476
10030 1 15476
10031 1 15487
10032 1 19878
10033 2 15476 15523
10034 1 15526
10035 5 15451 15476 15487 15523 20026
10036 2 15523 20026
10037 1 15487
10038 2 15477 15526
10039 2 15526 20028
10040 3 10206 15487 20028
10041 4 15477 15479 15526 15549
10042 6 19875 19878 19936 19938 19995 20068
10043 1 15487
10044 4 19878 19879 19892 19995
10045 6 15485 15525 15548 20070 20071 20126
10046 2 15485 20070
10047 3 10206 15487 20028
10048 3 15481 15484 15527
10049 10 8777 15478 15480 15482 15484 15524 15525 15527 15528 15548
10050 4 15453 15479 15549 20027
10051 6 15485 15487 15498 15529 19993 20070
10052 2 15487 15529
10053 3 15483 15485 20071
10054 1 15485
10055 1 20071
10056 3 15487 15505 20028
10057 1 15529
10058 2 10803 15529
10059 5 15460 15487 15505 15549 20032
10060 1 8789
10061 2 10803 15529
10062 2 15487 20105
10063 3 10803 15486 15562
10064 2 15529 15563
10065 1 15562
10066 2 15487 20105
10067 3 15487 20032 20105
10068 1 15532
10069 2 15490 15500
10070 3 9254 10774 15563
10071 2 10770 10817
10072 2 15490 15533
10073 1 15490
10074 2 9254 10774
10075 1 10775
10076 1 10774
10077 1 10775
10078 1 10775
10079 1 10775
10080 2 10774 15563
10081 2 15490 15533
10082 2 10774 15563
10083 4 8749 8750 8789 20079
10084 4 8789 15490 15533 20007
10085 8 8768 8782 9255 10775 10778 10817 10818 20080
10086 1 10778
10087 6 8784 9256 10819 15490 15534 15563
10088 1 10819
10089 2 8787 15535
10090 2 9258 10819
10091 3 9173 9255 10778
10092 2 9171 9258
10093 5 8768 11499 19967 20033 20111
10094 1 16494
10095 4 8769 19485 19968 20037
10096 5 9169 9282 9283 20013 20099
10097 2 8056 9258
10098 7 8768 9172 9173 9257 10778 10779 10781
10099 3 19969 20007 20085
10100 5 8137 9174 9320 16498 20101
10101 9 8056 8784 9258 9281 9336 10782 20007 20085 20133
10102 10 8057 8058 8059 8769 9175 9259 9260 10106 10783 20132
10103 1 10783
10104 8 8060 9284 17946 19969 20008 20016 20085 20088
10105 1 16494
10106 4 8769 9175 9260 10102
10107 2 8645 9320
10108 3 8139 9321 20013
10109 4 9176 9213 9290 17948
10110 1 8796
10111 6 8138 8140 8141 17951 20016 20133
10112 4 8142 9202 9287 20132
10113 4 8006 9323 9324 20134
10114 1 9324
10115 8 8796 9134 9140 9146 9201 9207 16400 16493
10116 1 9324
10117 20 8142 8769 8771 9175 9202 9206 9261 9262 9263 9264 9265 9266 9267 9291 9296 10783 10784 10785 10788 20037
10118 5 8066 8657 9292 9294 9340
10119 3 8650 9146 9293
10120 4 8110 9295 9313 16494
10121 1 8729
10122 4 8011 9140 9146 9207
10123 28 8061 8062 8063 8065 8095 8096 8099 8102 8103 8105 8106 8107 8108 8169 8170 8655 8818 9199 9294 9295 9318 9320 9338 9339 9340 9341 9343 16498
10124 7 8010 9146 9205 9209 9227 9293 9298
10125 3 8656 9210 9297
10126 9 8144 8145 8659 9141 9143 9210 9211 9212 9302
10127 15 8067 8142 8771 8922 9170 9177 9208 9296 9307 10765 10786 10787 10788 10789 10790
10128 1 9307
10129 3 8730 10790 10812
10130 2 9149 17966
10131 11 8124 8149 9144 9148 9220 9227 9268 9269 9301 9302 9312
10132 17 8115 8117 8924 9142 9149 9178 9200 9203 9204 9213 9234 9326 17963 17964 19971 20014 20017
10133 2 10790 10812
10134 19 8068 8109 8110 8112 8113 8114 8116 8122 8146 8148 8150 8663 9219 9295 9299 9313 9325 9342 9343
10135 2 8151 8663
10136 9 8024 8121 8662 9170 9306 9307 10765 10790 17967
10137 6 8124 8125 8127 8152 8156 9312
10138 3 9149 9234 17966
10139 4 8127 8156 8157 9312
10140 4 8071 8074 8666 9313
10141 4 8668 9154 9234 17969
10142 4 8665 8667 8770 17968
10143 4 8074 9155 9230 9313
10144 1 8667
10145 1 8667
10146 1 10820
10147 11 8123 8126 9221 9222 9225 9308 9309 9311 10793 10813 10820
10148 2 9312 17976
10149 2 9312 17976
10150 4 9228 9312 9344 17976
10151 40 8020 8021 8023 8025 8026 8028 8029 8069 8070 8076 8129 8130 8158 8159 8160 8175 9135 9145 9146 9147 9151 9153 9156 9160 9217 9218 9227 11182 11203 11206 11211 11220 14215 14223 15380 16406 16493 16499 16500 16767
10152 6 8031 8190 9157 9160 9231 15380
10153 1 10820
10154 4 8081 9155 9230 9313
10155 11 8126 8155 8671 9181 9224 9225 9226 9310 9311 10820 17970
10156 5 8134 9159 9234 9251 17979
10157 3 9179 11182 11220
10158 7 8080 8088 8191 9312 9331 17976 17977
10159 4 9160 9231 9250 15380
10160 3 9250 11220 15380
10161 2 9312 15380
10162 2 9312 15380
10163 2 8035 9234
10164 7 8034 8037 9161 9181 9183 9233 10820
10165 1 9251
10166 4 8088 9312 9334 15380
10167 3 8035 9234 9251
10168 25 8119 8128 8131 8133 9150 9152 9178 9214 9215 9234 9247 9248 9304 9305 9313 9327 9328 9329 9332 9333 16404 16405 16494 20017 20091
10169 1 9234
10170 1 9234
10171 2 8171 9235
10172 12 8083 8131 9232 9237 9239 9248 9249 9252 9313 9330 9332 9333
10173 4 8089 9235 9238 9313
10174 2 8939 9252
10175 2 11220 15385
10176 3 9236 9239 9252
10177 2 11220 15385
10178 2 11220 15385
10179 2 11220 15385
10180 1 9239
10181 1 9252
10182 6 8040 8172 9185 9238 9313 9316
10183 3 9186 9240 15385
10184 5 9164 9240 11186 11220 15385
10185 3 8090 9239 9316
10186 3 8944 9190 9239
10187 12 8136 8933 9187 9188 9189 9242 9345 9346 10767 10797 17999 18008
10188 3 8041 8941 11292
10189 3 9241 16593 18012
10190 3 9253 9317 16593
10191 3 9241 9253 18012
10192 2 9253 16593
10193 11 8044 8136 9187 9270 9271 9272 10767 10797 10806 10820 18019
10194 4 8943 9168 9240 9243
10195 2 9241 16593
10196 3 8943 11230 11292
10197 2 9253 18009
10198 2 11230 18016
10199 4 8943 9243 9335 11230
10200 4 8941 9317 11292 16579
10201 6 8044 9191 9273 9275 9280 10805
10202 9 8043 8045 9194 9273 9274 10768 10806 10807 10815
10203 4 10771 10772 10815 18020
10204 2 14752 19749
10205 4 9958 19988 20019 20096
10206 4 10040 10047 15487 20028
10207 6 8746 8789 15484 15527 15528 15550
10208 3 18477 18484 19807
10209 2 10243 18450
10210 1 10243
10211 3 10243 18453 19845
10212 5 18415 19737 19834 19841 19871
10213 4 8800 9882 20055 20118
10214 6 8532 9422 18430 18431 19840 19841
10215 4 14755 18433 18440 19841
10216 3 9423 19752 19841
10217 3 10243 19763 19845
10218 3 8739 18472 18478
10219 6 10228 10229 18476 18478 19772 19865
10220 3 10230 18491 19865
10221 5 14722 18490 18492 19807 19865
10222 4 9622 10231 18501 19860
10223 16 8775 9462 9470 9475 15538 18500 18503 19779 19807 19865 19990 20066 20097 20104 20122 20139
10224 4 9483 19784 19865 20123
10225 3 9495 19784 19865
10226 4 10240 10241 18529 19865
10227 3 14767 18532 19865
10228 7 8739 8740 8764 10219 18476 18478 19772
10229 11 9962 10219 18478 18479 18480 18485 18486 18487 19774 19857 19865
10230 5 10220 18487 18491 19774 19865
10231 4 10222 18501 19781 19860
10232 3 9623 18508 19865
10233 3 18504 19728 19860
10234 4 18508 19704 19706 19865
10235 2 18508 19865
10236 3 18504 18509 19860
10237 3 18508 18523 19865
10238 10 14726 14819 18509 18510 18512 18513 18517 18519 18521 19860
10239 4 18521 18522 18525 19860
10240 6 10226 18523 18526 18528 18529 19865
10241 5 10226 18529 18530 18532 19865
10242 4 7684 18525 18527 19860
10243 12 10209 10210 10211 10217 15508 18450 19755 19763 19841 19845 20023 20056
10244 5 9457 9460 9621 18508 19865
10245 8 9458 9459 9461 18493 18497 18498 19776 19858
10246 2 10256 10270
10247 3 10248 10256 10273
10248 3 10247 10256 10273
10249 2 10259 10284
10250 4 7940 10259 14501 14629
10251 2 10267 10277
10252 2 10267 10277
10253 7 10259 10260 10261 10267 10277 10278 10284
10254 5 7967 8953 10261 10267 14500
10255 6 7927 7957 7967 10267 10277 10279
10256 11 7755 7769 10246 10247 10248 10270 10273 18053 18054 18063 18153
10257 1 10273
10258 3 7954 10273 14783
10259 7 7940 10249 10250 10253 10277 10284 14501
10260 2 10253 10278
10261 6 7967 10253 10254 10278 10284 14500
10262 12 7723 7789 9803 9876 10269 10282 10286 10287 10604 15594 15595 18256
10263 2 7773 10286
10264 2 7773 10286
10265 5 7967 8955 8963 10279 10281
10266 4 7772 9876 10269 18295
10267 13 7967 8955 10251 10252 10253 10254 10255 10277 10278 10279 10280 10281 14500
10268 3 7967 8978 10281
10269 12 7773 9803 9876 10262 10266 10282 10285 10286 15595 18263 18295 18296
10270 3 10246 10256 10273
10271 3 10283 19814 19823
10272 2 7790 18053
10273 21 7694 7755 7769 7770 7771 7790 7923 7939 7942 7954 8415 10247 10248 10256 10257 10258 10270 14501 18053 18063 18146
10274 4 9562 9564 10287 19733
10275 24 7898 8186 8187 8188 8189 8382 8384 8385 8688 8689 8842 9875 10283 10287 10578 18117 18122 18141 18142 18144 18145 18147 18148 19814
10276 3 9562 10287 19733
10277 9 7940 7957 10251 10252 10253 10255 10259 10267 14502
10278 5 10253 10260 10261 10267 14500
10279 6 7927 7967 8955 10255 10265 10267
10280 2 7967 10267
10281 8 7967 8955 8963 8978 10265 10267 10268 14841
10282 9 9807 9878 10262 10269 10286 10287 18263 18285 18296
10283 3 10271 10275 19814
10284 10 7770 7790 7956 7967 10249 10253 10259 10261 14501 18061
10285 3 9803 10269 15595
10286 7 7723 7773 10262 10263 10264 10269 10282
10287 27 7717 7724 9562 9564 9567 9807 9856 9875 9881 10262 10274 10275 10276 10282 10288 10578 14671 14682 18256 18294 19733 19814 19815 19816 19817 19826 19827
10288 1 10287
10289 2 8425 8685
10290 6 8425 8446 8685 8686 13561 18063
10291 4 10350 10434 15605 15608
10292 9 7634 10306 10351 10352 10435 10436 15608 15609 20207
10293 4 10312 10363 15620 20208
10294 4 10313 10437 15621 15622
10295 4 7979 10326 10438 15622
10296 5 7636 10326 10438 15624 15666
10297 4 7636 10438 15625 15666
10298 3 10329 18597 18817
10299 4 15390 15632 15633 18598
10300 17 10329 15386 15388 15389 15390 15627 15629 15631 15633 15634 15636 18580 18582 18597 18598 18838 18897
10301 3 8623 18604 20212
10302 3 8623 10377 20213
10303 3 8623 10349 18622
10304 5 8623 10349 15640 18840 20213
10305 2 8623 10339
10306 7 7627 7634 10292 10352 15607 15657 15661
10307 4 7972 10380 15609 20207
10308 3 7972 10462 20207
10309 5 7628 8877 8878 9620 10385
10310 3 7628 8878 18679
10311 4 15617 20207 20208 20220
10312 3 10293 15620 20208
10313 4 10294 15621 15622 20209
10314 2 10389 18694
10315 2 10389 18694
10316 3 7616 10393 18694
10317 2 10390 18694
10318 2 7616 18694
10319 2 10392 18694
10320 2 10394 18694
10321 5 7617 8693 10391 10392 18694
10322 5 7616 7635 10393 10394 18694
10323 4 7617 18692 18694 18695
10324 3 8699 8868 9635
10325 5 7635 18698 18699 18700 18701
10326 7 7636 10295 10296 10438 15622 20209 20222
10327 7 7635 8699 18691 18693 18696 18697 18701
10328 6 8702 8703 10370 18577 18835 18837
10329 6 10298 10300 15386 18597 18817 18897
10330 6 7619 10371 10372 18583 18586 18587
10331 9 7619 7629 10384 15628 15630 18585 18587 18725 18726
10332 2 7603 18728
10333 2 7603 18728
10334 3 7603 7630 18728
10335 4 7603 7630 18599 18600
10336 3 7620 15635 18600
10337 2 15635 20210
10338 4 8622 15637 18608 20211
10339 5 8623 10305 15640 15641 20214
10340 5 15642 15643 18840 20214 20216
10341 6 8625 10445 10446 15645 20225 20227
10342 3 10395 18740 18841
10343 16 8624 10378 10395 10396 10398 10446 15643 15646 18739 18740 18840 18841 18842 20215 20216 20219
10344 5 15645 15646 20219 20226 20227
10345 4 10396 10398 15648 18842
10346 4 10396 15647 15648 20219
10347 2 15648 20218
10348 2 15648 20218
10349 5 8623 10303 10304 18622 20213
10350 4 7634 10291 15605 15608
10351 3 7634 10292 15608
10352 5 7627 7634 10292 10306 15607
10353 3 7602 10385 10399
10354 2 10385 10399
10355 3 7602 7640 10399
10356 2 7974 20207
10357 1 7628
10358 2 7640 10399
10359 4 7628 10385 10386 10399
10360 3 7609 7635 10400
10361 2 10386 10399
10362 5 7974 15615 15617 15619 20207
10363 2 10293 15620
10364 3 7628 10387 10399
10365 2 10387 10399
10366 2 7636 18831
10367 2 7636 18831
10368 1 10392
10369 3 7636 10383 15624
10370 5 8545 8703 10328 18575 18577
10371 4 7619 8545 10330 18583
10372 2 10330 18583
10373 7 7620 7630 7631 10374 13839 18600 18898
10374 4 7620 7631 10373 13839
10375 2 8623 15640
10376 8 7622 7623 7624 7626 13839 18627 18839 20213
10377 4 8623 10302 18622 20213
10378 5 10343 18739 18840 18841 18900
10379 1 10434
10380 4 7972 10307 10435 15609
10381 2 7608 10399
10382 3 7608 7640 10399
10383 3 7636 10369 15664
10384 3 10331 15628 18585
10385 8 7602 7628 8877 10309 10353 10354 10359 10399
10386 3 10359 10361 10399
10387 5 7628 10364 10365 10399 18694
10388 3 7635 10400 18694
10389 5 7628 8707 10314 10315 18694
10390 3 8704 10317 18694
10391 2 10321 18694
10392 4 10319 10321 10368 18694
10393 6 7616 7635 10316 10322 18690 18694
10394 4 7616 10320 10322 18694
10395 4 10342 10343 18740 18841
10396 6 10343 10345 10346 15648 18842 20219
10397 1 15648
10398 8 10343 10345 14190 15648 18638 18740 18841 18842
10399 26 7602 7608 7628 7640 10353 10354 10355 10358 10359 10361 10364 10365 10381 10382 10385 10386 10387 15610 18675 18676 18677 18678 18680 18681 18682 18694
10400 7 7609 7635 10360 10388 15618 18683 18694
10401 1 18809
10402 2 15414 18809
10403 2 9352 15416
10404 5 9350 9351 15418 18804 18805
10405 5 9351 9353 15418 18805 18806
10406 2 7877 18806
10407 1 9762
10408 11 9048 9749 9761 9762 9763 9772 10582 10583 10584 14611 14612
10409 4 9764 9766 10584 14613
10410 1 14615
10411 18 9752 9753 9754 9765 9766 9767 9774 10585 10586 10587 10588 10589 10591 10592 10593 14614 14615 14616
10412 3 8573 9385 9386
10413 7 8196 8229 8626 9907 9908 19894 19897
10414 9 7900 9912 9915 9916 9917 9919 9921 19897 19902
10415 5 8230 9923 9924 19901 19902
10416 3 8200 8232 19902
10417 12 8048 8202 8203 8204 8205 8207 8208 8209 8236 8239 9934 19904
10418 5 8240 17928 19904 19913 19941
10419 4 7906 17929 19913 19941
10420 10 7907 8210 8211 8212 8213 8241 8632 17931 19883 19924
10421 2 8215 19915
10422 4 8214 9938 19884 19915
10423 18 8216 8217 8242 8243 8246 8247 8248 8249 8251 10773 19886 19905 19916 19917 19927 19949 19950 19951
10424 7 8219 8255 9954 9956 15513 19917 20138
10425 4 8220 17937 19919 20063
10426 4 8225 9976 9979 19908
10427 4 8226 9985 19873 19932
10428 5 8224 8227 8228 19908 19922
10429 3 10000 17942 28752
10430 2 10000 28752
10431 5 8428 10432 18128 28381 28382
10432 7 8426 8427 10431 18128 28379 28381 28382
10433 6 7970 10459 14894 15604 15841 19229
10434 7 7972 10291 10379 10460 15605 15608 20203
10435 8 7972 10292 10380 15608 15609 20204 20205 20206
10436 3 10292 15609 20207
10437 4 7979 10294 15621 15622
10438 7 7979 10295 10296 10297 10326 15625 15666
10439 3 7979 10467 15625
10440 7 10468 14901 14906 15626 15748 15791 18742
10441 2 8623 15641
10442 12 10925 13905 13907 14909 15755 15756 15758 15800 15802 15805 15999 18745
10443 1 15644
10444 1 18745
10445 3 10341 15645 20225
10446 15 7858 7859 8395 8397 8624 8625 10341 10343 10476 15643 15647 15648 18743 18746 20218
10447 2 10455 18789
10448 6 10452 10454 10455 10456 18789 18796
10449 1 10456
10450 3 10454 10458 13458
10451 1 10458
10452 2 10448 10455
10453 3 10454 10456 10458
10454 8 10448 10450 10453 10456 10458 13456 13458 18789
10455 7 8195 10447 10448 10452 18789 18796 18799
10456 6 10448 10449 10453 10454 18796 18799
10457 4 8841 13457 13471 13491
10458 6 8186 10450 10451 10453 10454 18158
10459 4 7970 10433 15604 15841
10460 3 7972 10434 15605
10461 1 7973
10462 5 7972 7974 10308 15619 20207
10463 1 15614
10464 1 7977
10465 3 7976 15739 15789
10466 2 7979 15621
10467 3 7978 7979 10439
10468 4 7980 10440 15748 15791
10469 2 7988 16006
10470 1 18744
10471 1 7982
10472 3 7983 7984 18746
10473 2 7983 18746
10474 1 18746
10475 2 7984 18746
10476 2 7985 10446
10477 1 18747
10478 2 7988 18745
10479 1 8402
10480 3 7986 8402 8819
10481 1 15373
10482 2 7823 14566
10483 3 7892 10532 18873
10484 1 7892
10485 3 7892 15378 18876
10486 2 8306 18847
10487 3 8306 14190 18847
10488 10 7797 7800 7833 7836 8307 8311 8312 18038 18821 18847
10489 7 7834 7838 8310 10504 14175 18035 18847
10490 4 7801 8315 15373 18865
10491 4 7864 7888 8285 18851
10492 6 7886 7887 8289 18025 18851 18908
10493 4 7889 8289 18029 18823
10494 5 7890 18027 18853 18856 18858
10495 2 7890 18033
10496 3 7890 18033 18858
10497 3 7871 18031 18860
10498 6 7794 8298 18031 18032 18859 18860
10499 3 8300 8309 18910
10500 3 7795 18861 18904
10501 6 7872 8302 8410 15373 18862 18865
10502 3 8317 18863 18910
10503 2 8316 18865
10504 7 7804 7838 8319 8324 10489 14175 18046
10505 4 7802 8325 15373 18826
10506 2 10557 15373
10507 4 18038 18864 18883 18904
10508 12 7798 7805 7817 7835 8310 8312 8313 18038 18046 18847 18879 18886
10509 6 8324 8326 8329 8330 14175 18046
10510 2 8331 14175
10511 2 8331 14175
10512 4 8331 8332 14175 18046
10513 4 8332 11489 11525 14175
10514 7 7809 7818 7820 8334 18045 18867 18910
10515 6 7810 8330 8331 8333 14175 18046
10516 9 8316 8325 8336 18865 18867 18884 18888 18891 18910
10517 4 7874 7875 18870 18887
10518 8 7823 7873 7875 8336 8338 18868 18889 18890
10519 2 8347 11505
10520 13 7805 7806 8327 8328 8335 8341 8391 10549 18046 18828 18877 18879 18911
10521 5 7820 8334 8340 18871 18891
10522 8 7811 7843 8342 8354 18050 18872 18879 18886
10523 2 11505 11526
10524 5 7821 7839 8354 18827 18872
10525 7 7823 8336 8343 8344 8348 18890 18891
10526 4 7812 8354 18050 18827
10527 6 8341 8355 8386 8389 8391 10558
10528 4 8356 8358 8391 18874
10529 2 8355 18162
10530 4 8355 8358 8391 18162
10531 1 18162
10532 2 7892 10483
10533 1 8393
10534 6 8351 8355 8392 8393 10558 18162
10535 1 8393
10536 5 7824 7832 7893 8357 18891
10537 5 8358 8361 8393 18162 18874
10538 2 8361 14199
10539 5 7894 8362 10541 18166 18875
10540 4 8393 18164 18171 18879
10541 8 7894 8354 8362 8363 10539 18051 18875 18881
10542 5 7825 8366 8393 10555 18171
10543 5 7894 7895 8363 18848 18881
10544 11 7791 7829 7895 8354 8365 18167 18878 18879 18880 18881 18892
10545 7 8366 10555 11465 11914 12261 12338 18171
10546 4 8369 10556 12269 16938
10547 3 8314 8317 18863
10548 4 8314 8318 8320 18863
10549 5 7805 7837 8323 10520 18879
10550 4 8321 18036 18038 18883
10551 4 8334 18867 18871 18891
10552 1 8393
10553 3 8393 18163 18877
10554 4 8393 18163 18164 18877
10555 8 8359 8360 8366 8393 10542 10545 12338 12458
10556 17 7814 7826 7827 7830 7831 7896 7897 8367 8368 8369 10546 11465 12269 12341 18171 18882 18893
10557 4 8325 10506 15373 18884
10558 6 8341 8351 8355 10527 10534 18877
10559 4 8288 8289 18854 18908
10560 1 10564
10561 2 10564 10569
10562 3 10566 10567 10572
10563 1 18291
10564 5 10560 10561 10569 18275 18293
10565 8 7761 9854 10570 10576 10577 18312 18772 20183
10566 1 10562
10567 3 10562 10572 14517
10568 2 18293 18311
10569 3 10561 10564 18293
10570 4 7753 10565 10576 10577
10571 1 10572
10572 5 8413 10562 10567 10571 14517
10573 3 8413 9055 9066
10574 1 8414
10575 2 8414 9744
10576 7 7753 10565 10570 18275 18292 18772 20158
10577 8 7753 7760 10565 10570 18312 18770 18771 20183
10578 2 10275 10287
10579 1 9066
10580 2 9708 13504
10581 2 9709 13504
10582 3 9762 9772 10408
10583 2 9762 10408
10584 15 8910 9750 9759 9762 9763 9764 9765 9766 9769 9770 9771 9774 10408 10409 14612
10585 9 8572 8577 8911 9759 9760 9765 9767 9771 10411
10586 2 9766 10411
10587 3 9766 9774 10411
10588 7 8572 9746 9751 9752 9760 9767 10411
10589 2 9753 10411
10590 1 9753
10591 6 8572 9747 9752 9753 9768 10411
10592 2 9754 10411
10593 4 9753 9754 9768 10411
10594 3 9754 14617 18748
10595 5 9754 9755 9757 9768 18748
10596 5 9756 9757 9758 9768 18749
10597 2 9768 18749
10598 1 9768
10599 2 9768 18749
10600 2 9768 18750
10601 2 9768 18750
10602 2 9768 18750
10603 3 9391 9768 18750
10604 4 9803 10262 15594 15595
10605 2 9072 18263
10606 1 18263
10607 1 18263
10608 4 9880 14635 18260 18277
10609 1 18238
10610 2 18238 18277
10611 2 18260 18303
10612 2 9072 9090
10613 2 18238 18252
10614 2 18263 18302
10615 2 18263 18302
10616 6 9067 9072 9091 9092 9093 18302
10617 4 14526 18238 18277 18288
10618 2 15574 18264
10619 1 19739
10620 1 19739
10621 1 19742
10622 1 19742
10623 1 9128
10624 1 9082
10625 2 9082 9128
10626 2 14787 19838
10627 1 15588
10628 4 15573 18238 18255 18279
10629 1 19742
10630 2 14786 19743
10631 2 18238 18304
10632 1 15588
10633 1 9082
10634 1 15588
10635 1 9128
10636 1 9128
10637 3 9082 9094 9128
10638 1 15588
10639 5 15573 18231 18238 18279 18304
10640 2 9084 15569
10641 3 9073 9086 15588
10642 3 7756 18231 18279
10643 3 9068 9082 9085
10644 2 9076 9094
10645 1 9086
10646 1 9076
10647 1 19841
10648 1 19841
10649 1 19841
10650 2 18239 18279
10651 1 9076
10652 1 9086
10653 1 9076
10654 1 15578
10655 6 7719 9083 9086 9087 9116 18253
10656 1 9076
10657 9 7787 9073 9084 9115 15578 15587 15588 15589 18302
10658 1 9076
10659 1 15591
10660 3 9100 19748 19841
10661 1 9095
10662 3 9086 15591 15592
10663 1 9087
10664 2 9087 15592
10665 1 9098
10666 3 9095 9098 9117
10667 1 9087
10668 4 9079 15580 15593 15597
10669 3 9076 9100 19748
10670 1 9087
10671 1 15580
10672 3 9077 15570 15579
10673 1 9087
10674 1 9100
10675 1 15580
10676 2 9087 15581
10677 3 9079 9122 18305
10678 1 9122
10679 1 9122
10680 1 9109
10681 2 9079 9122
10682 1 9122
10683 6 9077 9079 9088 15577 15596 15597
10684 1 9133
10685 1 9133
10686 2 9122 18307
10687 2 9080 18280
10688 1 9122
10689 3 9079 9122 18305
10690 1 9122
10691 1 18307
10692 2 18307 19762
10693 1 19767
10694 2 9080 18267
10695 13 9071 9081 9089 9112 15571 15572 15585 15586 18243 18245 18267 18268 18310
10696 7 7728 18243 18244 18245 18267 18269 18309
10697 3 9113 18269 18290
10698 2 9113 20153
10699 1 9113
10700 1 20153
10701 1 20161
10702 2 20161 20173
10703 1 20161
10704 1 20161
10705 2 7851 20153
10706 2 7852 20161
10707 1 20177
10708 1 20190
10709 1 20190
10710 1 20190
10711 1 20177
10712 2 20177 20190
10713 1 20190
10714 7 7750 7751 18311 20161 20177 20178 20190
10715 3 20142 20161 20181
10716 1 20161
10717 2 20161 20181
10718 1 20161
10719 1 20191
10720 21 7745 7746 7748 7749 7777 7778 15586 18245 18246 18249 18269 18270 18271 18272 18275 18284 18292 18293 20156 20158 20177
10721 2 20161 20180
10722 1 19711
10723 3 19713 19783 20161
10724 1 20186
10725 1 20161
10726 13 7752 7779 7780 18293 18311 20149 20157 20159 20161 20178 20180 20182 20186
10727 2 20191 20200
10728 1 20161
10729 1 20186
10730 1 20161
10731 5 7720 7721 7781 20159 20186
10732 1 20161
10733 2 20161 20186
10734 2 19716 20162
10735 2 20161 20186
10736 3 19799 20162 20192
10737 1 20150
10738 2 19799 20162
10739 1 20148
10740 1 20148
10741 1 20166
10742 4 20147 20160 20163 20186
10743 1 20186
10744 5 20151 20152 20164 20166 20186
10745 1 20188
10746 1 20188
10747 2 20166 20185
10748 1 20188
10749 1 20188
10750 2 18753 20166
10751 1 20188
10752 1 20188
10753 2 18765 20188
10754 2 20168 20188
10755 1 20188
10756 1 18303
10757 7 9070 9080 9112 9119 15571 15582 18291
10758 2 7852 19860
10759 1 7852
10760 1 19860
10761 3 7851 14723 19858
10762 1 19860
10763 6 7721 7722 7781 20166 20185 20186
10764 2 20188 20202
10765 6 9177 9306 9307 10127 10136 10790
10766 3 10792 10814 14179
10767 6 9187 9188 9271 10187 10193 10797
10768 4 8043 8045 10202 10806
10769 2 10803 15486
10770 5 9196 9197 10071 10817 18573
10771 4 8679 10203 10815 18020
10772 5 8681 10203 10815 18020 18021
10773 10 9942 10423 10809 19905 19915 19916 19926 19949 19950 19986
10774 7 9254 10070 10074 10076 10080 10082 15563
10775 5 10075 10077 10078 10079 10085
10776 1 9173
10777 1 9173
10778 8 8768 9173 9255 9257 10085 10086 10091 10098
10779 2 9173 10098
10780 1 9173
10781 3 8768 9172 10098
10782 2 9258 10101
10783 8 9175 9261 9262 9287 10102 10103 10117 20132
10784 3 8771 10117 20037
10785 3 9264 9266 10117
10786 2 8771 10127
10787 2 8771 10127
10788 5 8771 9267 9296 10117 10127
10789 2 8771 10127
10790 11 8730 8771 9177 9208 9306 10127 10129 10133 10136 10765 10812
10791 8 8729 10811 10814 14179 19485 20037 20038 20040
10792 3 10766 10814 14179
10793 7 8771 9221 9308 9309 10147 10813 10820
10794 1 10820
10795 1 10814
10796 2 8771 10820
10797 6 8136 9189 9271 10187 10193 10767
10798 3 8771 10806 10820
10799 1 16524
10800 8 10821 10822 16476 16531 18378 18380 18381 18386
10801 1 10823
10802 4 8800 10827 10828 19738
10803 13 9195 9347 10058 10061 10063 10769 10817 15486 15487 15529 15530 15562 18573
10804 3 8782 10817 20080
10805 2 8044 10201
10806 16 8043 8044 8045 8732 8771 9193 9272 9273 9274 9276 10193 10202 10768 10798 10820 11328
10807 7 8045 9192 9193 9194 10202 10815 11328
10808 3 10829 19737 19871
10809 8 10773 10830 19906 19917 19950 19986 19988 20019
10810 3 10830 19906 19988
10811 3 8729 10791 20040
10812 4 8730 10129 10133 10790
10813 4 8731 8771 10147 10793
10814 9 8771 10766 10791 10792 10795 14179 18637 18639 20040
10815 8 8679 10202 10203 10771 10772 10807 11328 18021
10816 3 16530 16532 20115
10817 11 8782 10071 10085 10770 10803 10804 15487 18557 18573 20029 20080
10818 2 10085 20080
10819 5 8784 9258 10087 10088 10090
10820 19 8034 8039 8078 8771 9161 9181 9310 9311 10146 10147 10153 10155 10164 10193 10793 10794 10796 10798 10806
10821 3 10800 18380 18386
10822 13 10800 16397 16476 16524 18385 18386 18392 18394 18395 18396 18399 19976 20135
10823 3 10801 14624 14627
10824 8 8773 8799 9847 9856 16532 18389 18393 20115
10825 1 19871
10826 3 8799 8802 20047
10827 4 8800 10802 19738 19872
10828 6 8800 10802 19738 19745 19837 19841
10829 11 8484 9586 10808 14625 15553 19737 19802 19841 19871 20048 20119
10830 4 10809 10810 19906 19988
10831 4 10875 10967 15721 19197
10832 3 10915 15857 19309
10833 2 14896 18930
10834 3 14896 18930 19065
10835 9 11036 14896 18930 18935 18937 18991 18992 18993 19065
10836 2 11147 11156
10837 1 11044
10838 2 11147 11156
10839 13 10938 10939 18945 18946 18947 18949 18952 18953 18954 18997 19003 19084 19089
10840 13 10953 11035 11039 11041 11044 11065 11143 11144 11145 11148 11153 18936 28387
10841 3 11073 13992 19342
10842 4 15673 15674 15683 15817
10843 1 15817
10844 3 15683 15812 15817
10845 2 15682 15817
10846 3 10948 11077 15817
10847 2 15682 15817
10848 2 18972 19017
10849 3 11010 13563 13890
10850 6 10953 15680 15681 15814 15815 19135
10851 3 10953 15688 15816
10852 1 10953
10853 2 10952 15716
10854 5 10955 15690 15695 15696 15818
10855 2 10954 15820
10856 3 10955 15700 19158
10857 10 10950 10951 10952 10954 15691 15698 15716 15819 15820 15828
10858 1 10955
10859 4 10954 15702 15703 15822
10860 4 11078 18973 19019 19022
10861 6 10955 15699 15704 15823 19160 19169
10862 2 14018 19171
10863 2 14020 19172
10864 5 14020 19023 19168 19172 19178
10865 6 10957 15707 15710 15825 15827 19176
10866 3 15714 15826 15829
10867 1 10965
10868 5 10965 15711 15824 15830 19170
10869 4 10959 15714 15829 19184
10870 4 10965 15712 15831 19188
10871 2 14023 19390
10872 7 10967 15715 15718 15765 15832 19186 19189
10873 1 15835
10874 1 14023
10875 4 10831 10967 15721 19191
10876 2 13966 19193
10877 1 14023
10878 1 13967
10879 1 14023
10880 6 11022 14889 15730 15768 19198 19201
10881 3 10961 14028 18983
10882 4 14889 15730 15770 15776
10883 14 11023 14024 15729 15772 15773 15833 15834 15835 15836 19194 19204 19205 19206 19207
10884 5 14889 14890 14898 15838 19210
10885 7 11024 15774 15775 15839 15840 19209 19223
10886 2 14893 15777
10887 1 14893
10888 8 11025 15842 19221 19224 19230 19231 19232 19233
10889 11 10975 11026 15779 15780 15781 15843 19234 19235 19236 19237 19239
10890 7 10977 15731 15782 15783 15844 19238 19241
10891 2 10978 19243
10892 4 10977 15731 19241 19242
10893 10 10977 11026 15731 15784 15845 19239 19240 19242 19244 19245
10894 2 15845 19244
10895 3 13982 13984 14036
10896 2 10979 15847
10897 4 10979 15846 15847 19247
10898 4 13984 13996 19249 19251
10899 3 10986 13997 19256
10900 1 13998
10901 1 13998
10902 2 15787 15848
10903 1 13998
10904 2 10983 14001
10905 2 10986 13999
10906 6 10984 10989 11027 13998 14037 19261
10907 2 10989 14001
10908 5 10986 15787 15848 19259 19266
10909 2 10991 14001
10910 2 10991 14001
10911 8 10987 10988 10991 14000 15797 15854 19267 19286
10912 3 11032 15854 19286
10913 4 15855 19295 19299 19302
10914 4 11032 15757 15795 15854
10915 12 10832 10995 11031 14003 15857 19034 19296 19297 19298 19300 19306 19309
10916 4 10998 11032 15796 19301
10917 10 10999 14040 15851 15855 15856 19282 19284 19295 19302 19312
10918 2 15803 15859
10919 4 10996 14041 14903 19315
10920 2 14041 14903
10921 2 14041 14903
10922 4 14041 14903 14904 15861
10923 4 14041 14904 14950 15862
10924 4 13877 13881 14043 19044
10925 1 10442
10926 4 11000 14041 14950 19452
10927 3 11002 14951 19453
10928 3 13881 19043 19457
10929 1 14952
10930 3 11002 14951 14952
10931 2 11002 14952
10932 2 11002 14952
10933 3 11002 14044 14952
10934 5 13840 18925 18928 19062 28428
10935 3 13841 13842 19063
10936 1 13842
10937 7 13842 14895 14896 18930 19064 19067 19073
10938 12 10839 11007 14880 14881 18948 18953 18995 19075 19084 19331 19334 19336
10939 6 10839 11149 18954 19003 19082 19089
10940 2 11015 11042
10941 6 11070 11157 19083 19087 19095 19104
10942 9 11056 11073 11150 11160 19098 19099 19100 19103 19105
10943 7 14012 18967 18969 19011 19012 19013 19014
10944 3 14028 18972 19017
10945 2 13994 19356
10946 2 15687 15817
10947 3 11077 15817 19138
10948 7 10846 11010 11061 11077 15817 19136 19139
10949 2 18972 19017
10950 1 10857
10951 5 10857 11010 15698 15819 15820
10952 3 10853 10857 15716
10953 28 10840 10850 10851 10852 11015 11041 11044 11049 11061 11148 15676 15678 15680 15684 15688 15810 15811 15813 15817 19088 19090 19091 19097 19102 19106 19108 19110 19111
10954 6 10855 10857 10859 15703 15820 15822
10955 7 10854 10856 10858 10861 11015 19169 19173
10956 2 14023 18979
10957 5 10865 11014 11016 15707 19176
10958 2 14023 18980
10959 5 10869 11016 15829 19177 19184
10960 2 14023 18981
10961 2 10881 18983
10962 2 14023 18981
10963 1 14023
10964 2 14023 18982
10965 8 10867 10868 10870 11017 19170 19174 19187 19188
10966 4 11017 13966 19190 19192
10967 10 10831 10872 10875 11016 11019 14886 19182 19186 19195 19197
10968 3 11019 19196 19200
10969 3 14022 14887 19200
10970 4 14888 19025 19199 19200
10971 1 14023
10972 1 14028
10973 6 11022 13969 14898 19202 19203 19398
10974 1 19239
10975 3 10889 19236 19239
10976 2 14033 19243
10977 8 10890 10892 10893 19238 19239 19240 19241 19242
10978 3 10891 14033 19243
10979 8 10896 10897 13996 14035 15847 19247 19252 19257
10980 2 15847 19257
10981 5 13997 19027 19250 19253 19260
10982 7 11027 14037 19026 19248 19253 19258 19262
10983 1 10904
10984 5 10906 11027 14037 19028 19262
10985 2 13999 19263
10986 7 10899 10905 10908 13999 19256 19259 19266
10987 3 10911 14000 19267
10988 3 10911 15797 19267
10989 6 10906 10907 14001 14037 15849 19268
10990 1 19276
10991 8 10909 10910 10911 14000 14001 19264 19271 19286
10992 4 15858 19273 19276 19278
10993 1 15858
10994 6 11029 11030 11031 14040 15853 19300
10995 5 10915 14003 14039 19034 19303
10996 3 10919 14041 19315
10997 1 15858
10998 4 10916 15796 15858 19301
10999 4 10917 14040 15858 19312
11000 4 10926 14041 19451 19452
11001 3 14042 19450 19456
11002 11 10927 10930 10931 10932 10933 14044 14951 14952 19453 19454 19455
11003 1 14044
11004 7 11359 11438 13882 14044 14952 14953 15865
11005 9 13912 14905 18914 18917 18924 18990 19319 19320 28428
11006 2 18919 28428
11007 7 10938 13845 13988 19069 19071 19075 19331
11008 1 19133
11009 3 14018 19018 19146
11010 24 10849 10948 10951 11061 13563 13890 14015 15694 15697 15820 19016 19131 19132 19134 19139 19140 19142 19143 19144 19145 19147 19148 19149 19152
11011 3 19163 19167 19168
11012 15 14017 14018 15701 19018 19146 19150 19151 19153 19154 19155 19156 19157 19159 19161 19164
11013 4 14018 19162 19165 19171
11014 1 10957
11015 15 10940 10953 10955 11042 11050 11052 14028 18963 18968 19004 19008 19009 19010 19017 19173
11016 14 10957 10959 10967 13965 14882 14883 14884 14886 15705 15821 19166 19175 19177 19185
11017 5 10965 10966 13966 14028 19174
11018 2 13967 14028
11019 6 10967 10968 13965 14022 14886 19200
11020 2 13968 14028
11021 3 14022 14888 19200
11022 6 10880 10973 14889 14898 19201 19202
11023 2 10883 14024
11024 3 10885 14028 19223
11025 4 10888 14031 19221 19233
11026 7 10889 10893 14026 14031 19234 19239 19245
11027 9 10906 10982 10984 19027 19028 19253 19260 19261 19262
11028 1 19286
11029 6 10994 14038 14040 15853 19283 19285
11030 3 10994 15853 19300
11031 5 10915 10994 14003 14040 19300
11032 12 10912 10914 10916 15757 15759 15795 15796 15854 15858 19276 19286 19301
11033 4 11131 15970 19055 28387
11034 3 11129 15921 19060
11035 5 10840 11143 18916 18920 28387
11036 6 10835 18929 18932 18934 18991 18992
11037 13 11132 11134 11135 11136 11137 11147 11152 11154 15922 15923 15924 19060 19061
11038 4 11067 11147 11154 11156
11039 5 10840 11146 18936 18939 18940
11040 2 11147 19079
11041 10 10840 10953 11155 18994 18998 19000 19081 19085 19086 19088
11042 3 10940 11015 19004
11043 1 19008
11044 8 10837 10840 10953 11067 11148 11153 11156 19001
11045 1 19107
11046 1 19008
11047 2 18959 19005
11048 1 19008
11049 1 10953
11050 3 11015 19007 19008
11051 21 11071 11140 15875 15931 15932 15937 15938 15939 15940 15942 15943 15944 15945 15976 15977 15978 15979 15982 15983 19077 19114
11052 5 11015 18956 19004 19006 19008
11053 6 11072 11074 15946 15948 19115 19116
11054 2 11161 13852
11055 2 11069 11161
11056 12 10942 11073 11160 13992 19092 19093 19094 19096 19118 19120 19121 19124
11057 6 13992 19122 19125 19126 19127 19128
11058 6 11071 11158 11164 13993 14013 14014
11059 4 11075 13848 19127 19133
11060 1 14014
11061 13 10948 10953 11010 11159 15817 19091 19101 19107 19117 19119 19123 19129 19131
11062 1 14014
11063 1 14013
11064 1 19059
11065 3 10840 11153 19059
11066 2 11132 11152
11067 8 11038 11044 11133 11142 11151 11153 11154 11156
11068 5 11139 11147 19066 19074 19078
11069 3 11055 11161 19112
11070 7 10941 13991 19080 19083 19104 19337 19342
11071 10 11051 11058 11140 13993 15977 15979 15980 15983 18950 19114
11072 2 11053 19115
11073 6 10841 10942 11056 11150 13992 19342
11074 7 11053 13852 13921 15948 15949 15950 19113
11075 4 11059 13848 19130 19133
11076 6 13850 13922 13923 13924 15879 15952
11077 4 10846 10947 10948 15817
11078 3 10860 18973 19022
11079 6 15397 15398 15408 18197 18198 18352
11080 2 11114 15431
11081 1 11116
11082 1 11116
11083 3 15404 15420 18352
11084 1 15434
11085 3 8687 8689 15437
11086 1 9353
11087 8 9352 9361 15395 15402 15403 15416 18184 18352
11088 1 7881
11089 2 7881 15412
11090 3 7881 15412 18185
11091 5 7878 7880 9361 15395 18341
11092 1 7880
11093 3 15423 18192 18193
11094 3 8442 15424 18190
11095 6 7880 7884 9377 18186 18194 18352
11096 1 13386
11097 6 15392 15404 15405 18188 18189 18196
11098 5 8443 13385 13391 18195 18342
11099 1 13391
11100 1 13389
11101 1 13395
11102 7 8442 13389 13392 13393 15426 15427 18190
11103 11 7881 7883 15412 18179 18181 18183 18185 18187 18351 18355 18808
11104 6 7884 9377 15428 18182 18350 18352
11105 6 13388 13390 13395 15431 18342 18353
11106 2 13397 15408
11107 5 13404 13409 15409 15429 18199
11108 1 15411
11109 4 13408 13410 15410 15430
11110 1 15431
11111 3 13406 13407 15411
11112 2 15434 18354
11113 2 15434 18354
11114 13 11080 13395 13396 13399 13401 13408 15411 15429 15430 15431 15434 18346 18353
11115 1 15434
11116 3 11081 11082 15434
11117 7 7921 7922 7999 15432 15433 15435 15443
11118 1 15434
11119 1 15435
11120 1 15435
11121 1 15434
11122 1 15435
11123 1 15435
11124 1 15436
11125 6 8687 8689 9388 9406 15436 15437
11126 1 28510
11127 2 18918 28510
11128 5 11133 15919 19047 19048 19056
11129 5 11034 11132 15920 15921 19060
11130 1 19052
11131 3 11033 15970 19055
11132 7 11037 11066 11129 11152 15920 19057 19060
11133 10 11067 11128 11151 19048 19049 19050 19051 19052 19056 19058
11134 1 11037
11135 1 11037
11136 1 11037
11137 8 11037 11147 15925 15927 15929 15971 15972 19066
11138 3 15930 15975 19072
11139 10 11068 15928 15930 15973 15974 15975 19066 19070 19072 19074
11140 6 11051 11071 15976 15977 18950 19077
11141 1 18920
11142 1 11067
11143 5 10840 11035 18920 18926 18931
11144 1 10840
11145 2 10840 18936
11146 1 11039
11147 16 10836 10838 11037 11038 11040 11068 11137 11154 11156 18999 19001 19066 19068 19076 19078 19079
11148 3 10840 10953 11044
11149 3 10939 19082 19089
11150 4 10942 11073 19105 19342
11151 4 11067 11133 19052 19053
11152 3 11037 11066 11132
11153 5 10840 11044 11065 11067 19059
11154 4 11037 11038 11067 11147
11155 3 11041 18994 18998
11156 7 10836 10838 11038 11044 11067 11147 19001
11157 2 10941 19095
11158 2 11058 13993
11159 2 11061 19107
11160 3 10942 11056 19094
11161 5 11054 11055 11069 13852 19112
11162 1 13852
11163 1 13852
11164 3 11058 13852 14014
11165 4 11191 14084 14236 14256
11166 5 11191 11205 11565 11693 16777
11167 4 8027 11211 11272 11690
11168 2 16636 16747
11169 6 11216 11286 11557 16636 16745 16771
11170 5 11192 11694 11695 14219 14243
11171 1 11192
11172 2 11300 11332
11173 11 11222 11245 11246 11309 11706 11721 11723 16661 16774 16787 16790
11174 3 11231 11288 11719
11175 5 11239 11308 11713 11718 16808
11176 2 11187 11231
11177 3 11232 11312 11623
11178 2 11643 14068
11179 4 11277 11549 16782 16807
11180 2 11279 11703
11181 4 11218 11276 11279 11703
11182 16 8130 9179 10151 10157 11208 11209 11211 11217 11220 11268 11269 11278 11332 11697 11699 16788
11183 4 11220 11699 11704 16788
11184 5 11220 11223 11282 11704 11710
11185 4 11197 11220 11710 11716
11186 7 9240 10184 11220 11224 11285 11296 11716
11187 9 11176 11231 11270 11294 11560 11575 11576 11722 16757
11188 4 16555 16565 16567 16569
11189 4 16555 16565 16567 16578
11190 8 11235 11237 11248 11313 14972 16572 16576 16617
11191 7 11165 11166 11565 11693 14236 14256 16777
11192 6 11170 11171 11694 11695 16636 16773
11193 4 11218 11276 11695 16636
11194 5 11277 11700 11701 16643 16807
11195 2 11281 16649
11196 3 11281 11571 16649
11197 4 11185 11710 11716 16666
11198 6 11227 11296 11716 11717 16611 16666
11199 7 11232 11554 11572 11577 11639 11712 16654
11200 4 11240 11309 11721 16760
11201 3 11562 11643 14068
11202 7 11562 11643 11645 14068 14070 14233 16628
11203 6 8021 10151 14206 14215 14239 16767
11204 2 11566 14070
11205 3 11166 11565 11693
11206 10 8026 8027 8028 8159 10151 11330 11690 11691 14239 16767
11207 2 14210 16747
11208 1 11182
11209 1 11182
11210 4 11214 11275 11332 11701
11211 15 8027 8029 8129 8159 8160 10151 11167 11182 11272 11274 11332 11335 11692 11701 16799
11212 3 11694 14219 16636
11213 6 11267 14218 16643 16768 16780 16781
11214 3 11210 11332 11701
11215 2 11277 11701
11216 19 11169 11553 11557 11567 11571 11580 11588 16633 16634 16637 16638 16639 16640 16649 16745 16748 16750 16764 16765
11217 9 11182 11280 11301 11332 11697 11702 16648 16784 16788
11218 13 11181 11193 11276 11279 11695 11703 14212 14243 16643 16646 16770 16779 16783
11219 6 11303 16644 16645 16661 16675 16774
11220 25 8084 8085 9160 9162 9163 9250 10151 10157 10160 10175 10177 10178 10179 10184 11182 11183 11184 11185 11186 11699 11704 11710 11716 15380 15385
11221 3 11703 16652 16786
11222 4 11173 11245 11706 16804
11223 7 11184 11282 11704 11709 11710 16791 16793
11224 3 11186 11285 11296
11225 2 11309 11723
11226 7 11573 11589 11711 16660 16662 16796 16797
11227 5 11198 11717 16611 16666 16699
11228 2 11309 11723
11229 5 11290 11336 11574 11582 11725
11230 12 8943 9335 10196 10198 10199 11292 11296 11728 18011 18013 18014 18016
11231 14 11174 11176 11187 11288 11305 11575 11719 11720 11722 16756 16757 16766 16794 16798
11232 10 11177 11199 11290 11312 11337 11572 11582 11623 11639 11725
11233 6 11724 15994 16093 16446 16590 16611
11234 4 11293 11296 11724 16614
11235 6 11190 11291 11306 11309 14972 16617
11236 5 11294 11311 11560 11576 11726
11237 2 11190 11313
11238 4 11296 11310 16591 16614
11239 14 11175 11284 11289 11308 11309 11713 11718 11723 16555 16564 16569 16617 16785 16808
11240 8 11200 11247 11721 11726 14972 15062 16758 16760
11241 3 11296 11727 16592
11242 4 11296 11730 16594 16622
11243 2 11300 11701
11244 5 11300 11302 11332 11701 16673
11245 5 11173 11222 16661 16790 16804
11246 2 11173 11309
11247 6 11240 11721 11726 16661 16695 16792
11248 2 11190 16617
11249 5 11313 16561 16572 16576 17724
11250 2 19893 28578
11251 3 13908 14922 19460
11252 3 13909 14163 19460
11253 5 11322 13909 14164 14992 19461
11254 4 11323 14957 14993 16009
11255 3 11324 14957 14992
11256 5 14164 14957 14958 14991 14993
11257 3 14958 14993 14996
11258 2 14958 14996
11259 3 14167 14958 14996
11260 3 14923 14994 14997
11261 3 14168 14923 14995
11262 3 11263 13909 14925
11263 5 11262 13909 14924 14925 14927
11264 10 14055 14072 14073 14168 14923 14926 14993 14997 14998 14999
11265 2 13909 14959
11266 4 13909 14928 14959 14961
11267 5 11213 14200 14218 14259 16768
11268 2 11182 11699
11269 2 11182 11699
11270 3 11187 11560 11575
11271 5 14084 16628 16629 16667 16777
11272 5 11167 11211 11330 11690 11692
11273 5 11578 11693 14084 14145 14236
11274 6 11211 11330 11335 11691 11692 16802
11275 3 11210 11332 11701
11276 5 11181 11193 11218 11703 16636
11277 11 11179 11194 11215 11299 11549 11696 11701 16643 16670 16746 16807
11278 2 11182 11699
11279 4 11180 11181 11218 11703
11280 3 11217 11702 16784
11281 4 11195 11196 11571 16649
11282 4 11184 11223 11704 16791
11283 16 11333 11336 11570 11574 11578 11581 11693 11707 14145 16632 16635 16641 16672 16749 16751 16769
11284 4 11239 11723 16785 16808
11285 2 11186 11224
11286 14 11169 11304 11331 11557 11569 11583 11589 11698 11703 11708 11711 16636 16771 16775
11287 8 11571 11584 11585 11589 11714 16649 16653 16656
11288 5 11174 11231 11719 16664 16794
11289 2 11239 11723
11290 9 11229 11232 11334 11336 11337 11572 11582 11707 16654
11291 3 11235 11309 14972
11292 11 8041 8941 8943 10188 10196 10200 11230 11728 16579 16595 16609
11293 4 11234 11724 16093 16614
11294 4 11187 11236 11560 11576
11295 5 11626 11642 11726 15047 15062
11296 26 9168 9240 9335 11186 11198 11224 11230 11234 11238 11241 11242 11716 11724 11727 11728 11729 11730 16581 16590 16591 16592 16602 16611 16614 16621 16622
11297 3 12948 15051 16626
11298 6 11501 16012 16056 16352 16353 16509
11299 6 11277 11335 11701 16746 16763 16802
11300 5 11172 11243 11244 11332 11701
11301 3 11217 11332 11702
11302 4 11244 11701 16643 16673
11303 6 11219 11723 16644 16674 16774 16803
11304 10 11286 11703 11708 16655 16659 16688 16691 16692 16786 16805
11305 9 11231 11720 11726 16658 16693 16756 16776 16794 16795
11306 2 11235 16617
11307 4 11623 11628 11725 14145
11308 2 11175 11239
11309 13 11173 11200 11225 11228 11235 11239 11246 11291 11721 11723 14972 16617 16760
11310 6 11238 16093 16448 16591 16608 16614
11311 6 11236 11560 11575 11627 11639 11726
11312 8 11177 11232 11623 11628 11637 11639 11641 15049
11313 8 11190 11237 11249 14972 14975 16576 16626 17724
11314 1 11620
11315 1 11620
11316 5 11409 11599 11620 19477 28579
11317 1 28579
11318 3 11466 28579 28584
11319 5 11338 11466 11603 11606 28579
11320 1 14179
11321 15 8728 11481 11499 11516 14170 14177 14264 14265 19484 20032 20083 20084 20112 28665 28667
11322 5 11253 14921 14922 14992 19461
11323 4 11254 14922 14957 16009
11324 3 11255 14957 14992
11325 4 13909 14169 14927 14959
11326 3 14912 16043 19493
11327 5 14082 14941 16041 16342 19494
11328 13 8681 8732 9193 10806 10807 10815 14179 14912 16047 16343 18021 19488 19493
11329 1 16343
11330 6 11206 11272 11274 11690 11691 11692
11331 2 11286 11703
11332 14 11172 11182 11210 11211 11214 11217 11244 11275 11300 11301 11701 11702 16673 16677
11333 4 11283 11707 16647 16751
11334 4 11290 11707 16654 16678
11335 5 11211 11274 11299 11701 16802
11336 5 11229 11283 11290 11574 11707
11337 2 11232 11290
11338 8 11319 11410 11422 11428 11466 11602 11603 11605
11339 1 11385
11340 2 11385 11468
11341 3 11352 11673 15017
11342 5 11366 11373 11646 14133 16809
11343 3 11446 11658 11662
11344 2 11401 14990
11345 2 11646 16810
11346 2 11646 16810
11347 5 11376 11378 11653 14145 14242
11348 1 15017
11349 3 11673 15026 15038
11350 3 11674 15016 15037
11351 1 15017
11352 2 11341 15017
11353 12 11390 11395 11635 11636 11667 14145 14974 15040 15050 15056 15069 15148
11354 7 11673 14985 15017 15022 15026 15039 15160
11355 3 14142 15005 15029
11356 2 15005 15029
11357 1 19482
11358 5 11412 11610 11612 15985 19481
11359 5 11004 11438 11439 13882 14953
11360 3 11646 16737 16818
11361 2 16810 16817
11362 3 11442 11646 14145
11363 3 11443 11448 11646
11364 1 11646
11365 4 11443 11448 11646 14242
11366 7 11342 11450 11477 11646 14115 14127 14133
11367 3 11404 11449 11651
11368 2 14127 16819
11369 4 11444 11655 11656 16815
11370 2 11398 11458
11371 3 11460 11677 14965
11372 3 11460 11678 14911
11373 5 11342 11646 14106 14133 16809
11374 2 11646 16810
11375 4 11653 14116 14118 14127
11376 3 11347 11653 14242
11377 3 11653 14118 14245
11378 5 11347 11653 14102 14145 14245
11379 4 14126 16811 16812 16814
11380 8 11444 11445 11452 11657 11659 11660 14137 14190
11381 3 11666 14145 15005
11382 3 14139 15005 15028
11383 5 14139 14145 15005 15027 15028
11384 4 14141 14145 15005 15026
11385 16 11339 11340 11446 11447 11452 11468 11669 11682 14933 14934 14935 14936 14977 14978 14979 14986
11386 2 11675 14145
11387 3 14127 15006 15030
11388 3 14144 15014 15026
11389 2 11452 11669
11390 11 11353 11407 11634 11635 11636 11675 14119 14140 14145 15021 15037
11391 5 11406 11452 11478 14969 15000
11392 3 11451 11478 15000
11393 2 11455 14965
11394 4 11452 11453 11676 14197
11395 3 11353 11636 15040
11396 5 11454 11456 11676 14173 14197
11397 2 11459 14965
11398 9 11370 11457 11458 11459 11478 11676 11677 14174 14197
11399 4 11460 14911 14965 14970
11400 1 18043
11401 9 11344 11460 11479 11679 11680 14198 14968 14971 14990
11402 2 18041 18046
11403 11 8332 8337 8339 8347 11505 11525 18039 18040 18042 18043 18046
11404 5 11367 11449 11450 14125 14127
11405 8 11452 11664 11668 11669 11683 14938 14939 14986
11406 4 11391 11452 11668 15000
11407 4 11390 11636 15021 15040
11408 1 19477
11409 7 11316 11420 11596 11599 11600 19477 28579
11410 8 11338 11422 11426 11600 11602 11603 11605 28579
11411 3 11428 11613 16029
11412 9 11358 11428 11612 11613 15985 15986 16029 16030 19481
11413 3 11429 11466 28584
11414 3 15991 16039 16141
11415 3 11434 11619 15992
11416 2 28701 28702
11417 1 19477
11418 1 19480
11419 1 19480
11420 7 11409 11596 11597 11598 11600 19477 19480
11421 4 11597 19478 19479 19480
11422 3 11338 11410 11605
11423 2 11605 16027
11424 1 16027
11425 2 16026 16028
11426 8 11410 11595 11600 11604 11605 16027 19480 19482
11427 2 16027 19482
11428 12 11338 11411 11412 11466 11605 11607 11608 11613 15985 16028 16029 19481
11429 2 11413 28584
11430 3 15988 15989 16138
11431 1 28584
11432 2 15990 16038
11433 2 15992 16139
11434 31 11415 11466 11467 11608 11609 11611 11614 11615 11616 11617 11618 11619 15986 15987 15988 15989 15990 15992 16029 16031 16032 16033 16034 16035 16036 16038 16138 16139 28581 28584 28751
11435 1 28706
11436 1 28706
11437 1 15866
11438 2 11004 11359
11439 7 11359 13882 14917 14953 15809 15865 15866
11440 3 11646 16810 16818
11441 2 11646 16818
11442 3 11362 11646 14145
11443 7 11363 11365 11448 11646 14116 14127 14242
11444 8 11369 11380 11655 11656 11657 14093 14137 14190
11445 3 11380 14137 14190
11446 5 11343 11385 11452 11658 11662
11447 4 11385 11669 14935 14936
11448 4 11363 11365 11443 11646
11449 10 11367 11404 11648 11650 11651 11652 14109 14117 14125 14241
11450 5 11366 11404 11477 14125 14127
11451 4 11392 11478 11672 15000
11452 21 8306 11380 11385 11389 11391 11394 11405 11406 11446 11478 11660 11662 11668 11669 11676 14190 14197 14937 14964 18847 18913
11453 2 11394 11676
11454 2 11396 11676
11455 5 11393 11478 11672 14965 14966
11456 2 11396 11676
11457 2 11398 11676
11458 4 11370 11398 11478 11676
11459 6 11397 11398 11478 11677 14965 14966
11460 15 11371 11372 11399 11401 11479 11677 11678 11679 14175 14197 14198 14911 14965 14967 14971
11461 2 14127 14980
11462 3 14127 15007 15013
11463 3 14981 15007 16723
11464 1 15038
11465 5 10545 10556 11914 12341 18171
11466 11 11318 11319 11338 11413 11428 11434 11606 11607 11608 28579 28584
11467 2 11434 28584
11468 3 11340 11385 11669
11469 4 14949 16357 28689 28706
11470 3 14949 16357 28706
11471 2 16357 28689
11472 1 16357
11473 1 28706
11474 1 28706
11475 1 28706
11476 1 28706
11477 6 11366 11450 11644 11647 14115 14125
11478 12 11391 11392 11398 11451 11452 11455 11458 11459 11672 11676 14966 15000
11479 3 11401 11460 14198
11480 1 28706
11481 2 11321 11499
11482 3 11514 11731 11732
11483 8 14158 14271 14272 19549 19551 19552 19553 19563
11484 1 19562
11485 2 19557 19566
11486 5 11736 14271 19554 19562 19566
11487 4 11737 14087 14271 14299
11488 2 11684 14198
11489 6 10513 11505 11525 11681 11684 14175
11490 2 8391 18046
11491 4 11493 11681 11684 14198
11492 2 11681 14198
11493 5 11491 11503 11504 11681 14198
11494 3 11505 11526 11681
11495 2 11681 14198
11496 4 11497 11506 11681 11863
11497 15 8345 8346 8347 8350 8356 8387 8388 8390 8391 11496 11505 11506 11681 18044 18046
11498 3 11681 11863 11910
11499 10 10093 11321 11481 11516 19484 19966 20032 20033 20109 20111
11500 3 16056 16351 16462
11501 6 11298 16056 16114 16352 16465 16509
11502 2 11684 14198
11503 2 11493 11681
11504 2 11493 11681
11505 10 8347 10519 10523 11403 11489 11494 11497 11525 11526 11681
11506 5 8356 11496 11497 11527 11863
11507 1 11731
11508 3 11731 14159 14377
11509 1 11731
11510 2 11731 14159
11511 2 11731 14159
11512 1 11731
11513 2 11731 14159
11514 5 11482 11731 11732 11733 14159
11515 13 11733 11734 11735 14159 14273 14290 19506 19507 19555 19558 19560 19564 19565
11516 4 11321 11499 20032 20110
11517 2 14942 19533
11518 2 14942 19533
11519 1 16349
11520 3 16054 16349 16459
11521 3 14193 14195 16347
11522 2 16349 16463
11523 1 16058
11524 1 16058
11525 5 8332 10513 11403 11489 11505
11526 3 10523 11494 11505
11527 2 11506 11863
11528 2 14085 19466
11529 1 11593
11530 1 19473
11531 1 19473
11532 2 14090 19473
11533 1 19473
11534 2 14090 19473
11535 1 19535
11536 1 19470
11537 1 19473
11538 6 14085 14090 19473 19524 19526 19527
11539 1 19474
11540 1 19474
11541 2 15984 19503
11542 1 15984
11543 1 15984
11544 1 19529
11545 2 15984 19503
11546 29 11593 11594 14085 14089 15984 19466 19467 19468 19469 19470 19471 19472 19474 19475 19476 19500 19502 19503 19518 19519 19520 19522 19523 19525 19528 19529 19535 19542 19544
11547 2 15984 19503
11548 1 15984
11549 4 11179 11277 16643 16782
11550 3 11559 11577 11639
11551 6 11559 11577 11586 11590 11639 11715
11552 4 11563 11645 14070 16745
11553 13 11216 11566 11567 11568 11580 11587 14069 14070 16629 16667 16744 16745 16748
11554 2 11199 16654
11555 3 11576 11726 16757
11556 5 11579 16748 16752 16769 16777
11557 5 11169 11216 11286 11569 11588
11558 2 11725 14145
11559 4 11550 11551 11577 11639
11560 6 11187 11236 11270 11294 11311 11575
11561 4 14086 14233 14254 16628
11562 4 11201 11202 11643 14068
11563 4 11552 11645 14068 16745
11564 1 16745
11565 4 11166 11191 11205 11693
11566 5 11204 11553 14069 14070 16745
11567 3 11216 11553 16745
11568 3 11553 11580 16748
11569 4 11286 11557 11583 11588
11570 2 11283 11581
11571 8 11196 11216 11281 11287 11583 11588 11589 16649
11572 4 11199 11232 11290 16654
11573 2 11226 11589
11574 6 11229 11283 11336 11581 11725 14145
11575 8 11187 11231 11270 11311 11560 11590 11639 16798
11576 6 11187 11236 11294 11555 11726 16757
11577 8 11199 11550 11551 11559 11639 11712 11715 16654
11578 4 11273 11283 11693 14145
11579 3 11556 16748 16752
11580 5 11216 11553 11568 11587 16748
11581 4 11283 11570 11574 14145
11582 4 11229 11232 11290 11725
11583 5 11286 11569 11571 11588 11589
11584 2 11287 11589
11585 3 11287 11589 11714
11586 2 11551 11590
11587 2 11553 11580
11588 5 11216 11557 11569 11571 11583
11589 9 11226 11286 11287 11571 11573 11583 11584 11585 11711
11590 4 11551 11575 11586 11639
11591 1 11687
11592 2 11687 19512
11593 3 11529 11546 19500
11594 2 11546 15984
11595 2 11426 19482
11596 3 11409 11420 19477
11597 3 11420 11421 19480
11598 1 11420
11599 4 11316 11409 19477 28579
11600 6 11409 11410 11420 11426 19480 28579
11601 1 28579
11602 2 11338 11410
11603 4 11319 11338 11410 28579
11604 2 11426 16027
11605 7 11338 11410 11422 11423 11426 11428 16027
11606 2 11319 11466
11607 2 11428 11466
11608 4 11428 11434 11466 16029
11609 2 11434 16029
11610 2 11358 19481
11611 2 11434 16029
11612 3 11358 11412 19481
11613 4 11411 11412 11428 16029
11614 2 11434 16029
11615 2 11434 16033
11616 2 11434 16035
11617 2 11434 15990
11618 2 11434 16035
11619 4 11415 11434 15992 28581
11620 5 11314 11315 11316 28576 28579
11621 3 28582 28584 28751
11622 3 11629 11642 11670
11623 6 11177 11232 11307 11312 11628 11725
11624 7 11626 11642 11670 12957 14976 15048 15052
11625 3 14974 15049 15056
11626 5 11295 11624 11642 15052 15062
11627 6 11311 11637 11639 11726 15047 15066
11628 8 11307 11312 11623 11640 11641 11667 14145 15069
11629 5 11622 11642 11670 12958 16626
11630 2 14974 15049
11631 2 12958 16626
11632 1 14974
11633 8 11638 11780 11812 12948 15051 15060 15061 16626
11634 1 11390
11635 3 11353 11390 14145
11636 5 11353 11390 11395 11407 15040
11637 5 11312 11627 11639 15049 15066
11638 3 11633 15060 16626
11639 12 11199 11232 11311 11312 11550 11551 11559 11575 11577 11590 11627 11637
11640 3 11628 11667 15069
11641 4 11312 11628 15049 15069
11642 10 11295 11622 11624 11626 11629 11670 15047 15060 15066 16626
11643 5 11178 11201 11202 11562 14068
11644 2 11477 14115
11645 5 11202 11552 11563 14068 14070
11646 26 11342 11345 11346 11360 11362 11363 11364 11365 11366 11373 11374 11440 11441 11442 11443 11448 14106 14127 14133 14145 14231 14242 16809 16810 16817 16818
11647 2 11477 14125
11648 2 11449 14125
11649 2 14126 14244
11650 2 11449 14241
11651 2 11367 11449
11652 1 11449
11653 9 11347 11375 11376 11377 11378 14116 14118 14242 14245
11654 2 14126 16811
11655 4 11369 11444 14126 14190
11656 2 11369 11444
11657 2 11380 11444
11658 2 11343 11446
11659 1 11380
11660 2 11380 11452
11661 2 14127 15004
11662 3 11343 11446 11452
11663 9 14141 14142 14146 15005 15008 15026 15029 15031 15042
11664 2 11405 14938
11665 3 15006 15030 16725
11666 13 11381 14120 14127 14142 14145 14263 14984 15005 15006 15008 15035 15036 16724
11667 5 11353 11628 11640 14145 15069
11668 5 11405 11406 11452 14986 15000
11669 17 11385 11389 11405 11447 11452 11468 14934 14935 14936 14937 14938 14939 14964 14977 14978 14979 14986
11670 7 11622 11624 11629 11642 12957 12958 14972
11671 3 14974 15049 15066
11672 7 11451 11455 11478 14965 14986 14988 15000
11673 6 11341 11349 11354 15017 15026 15038
11674 5 11350 15015 15016 15037 17650
11675 15 11386 11390 14145 15014 15020 15022 15026 15033 15037 15158 15170 15171 15181 16816 17650
11676 12 11394 11396 11398 11452 11453 11454 11456 11457 11458 11478 14173 14197
11677 7 11371 11398 11459 11460 14174 14197 14965
11678 2 11372 11460
11679 2 11401 11460
11680 6 11401 12383 14198 14940 14968 15079
11681 18 11489 11491 11492 11493 11494 11495 11496 11497 11498 11503 11504 11505 11684 11863 11910 11963 12384 14198
11682 1 11385
11683 2 11405 14986
11684 7 11488 11489 11491 11502 11681 14175 14198
11685 2 19512 19540
11686 2 19513 19514
11687 18 11591 11592 19463 19499 19505 19508 19509 19510 19512 19513 19515 19516 19517 19521 19536 19537 19538 19541
11688 2 19521 19543
11689 1 19518
11690 5 8027 11167 11206 11272 11330
11691 5 11206 11274 11330 14239 16802
11692 4 11211 11272 11274 11330
11693 10 11166 11191 11205 11273 11283 11565 11578 14236 16769 16777
11694 5 11170 11192 11212 14219 16636
11695 8 11170 11192 11193 11218 14243 16636 16772 16773
11696 1 11277
11697 3 11182 11217 16788
11698 2 11286 16636
11699 7 11182 11183 11220 11268 11269 11278 16788
11700 3 11194 16643 16807
11701 15 11194 11210 11211 11214 11215 11243 11244 11275 11277 11299 11300 11302 11332 11335 16643
11702 6 11217 11280 11301 11332 16677 16784
11703 11 11180 11181 11218 11221 11276 11279 11286 11304 11331 16636 16786
11704 8 11183 11184 11220 11223 11282 16663 16788 16791
11705 2 16685 16788
11706 5 11173 11222 16661 16774 16804
11707 7 11283 11290 11333 11334 11336 16647 16678
11708 5 11286 11304 16659 16775 16805
11709 4 11223 16663 16791 16793
11710 7 11184 11185 11197 11220 11223 16666 16793
11711 5 11226 11286 11589 16662 16775
11712 2 11199 11577
11713 3 11175 11239 16808
11714 2 11287 11585
11715 2 11551 11577
11716 7 11185 11186 11197 11198 11220 11296 16666
11717 3 11198 11227 16666
11718 5 11175 11239 16564 16694 16808
11719 5 11174 11231 11288 16664 16798
11720 2 11231 11305
11721 6 11173 11200 11240 11247 11309 16661
11722 2 11187 11231
11723 13 11173 11225 11228 11239 11284 11289 11303 11309 16774 16785 16787 16803 16808
11724 6 11233 11234 11293 11296 16093 16590
11725 8 11229 11232 11307 11558 11574 11582 11623 14145
11726 16 11236 11240 11247 11295 11305 11311 11555 11576 11627 15047 15062 16695 16756 16757 16766 16795
11727 5 11241 11296 16592 16602 16621
11728 5 11230 11292 11296 16609 16622
11729 2 11296 16622
11730 3 11242 11296 16622
11731 15 11482 11507 11508 11509 11510 11511 11512 11513 11514 11732 11733 12662 14159 14377 19561
11732 3 11482 11514 11731
11733 6 11514 11515 11731 14159 19561 19564
11734 2 11515 19507
11735 3 11515 19507 19565
11736 1 11486
11737 1 11487
11738 1 12147
11739 1 12147
11740 7 12004 12020 12147 12149 12150 12155 17844
11741 1 12155
11742 1 12155
11743 1 12155
11744 1 12155
11745 2 17450 17529
11746 3 12325 15258 15265
11747 3 17454 17458 17530
11748 7 11767 11770 11900 12325 13235 15258 15268
11749 3 11772 11782 12986
11750 4 11858 11859 11945 12986
11751 6 12505 12517 12553 12618 13179 13180
11752 3 11838 12506 19576
11753 2 11866 13065
11754 3 11866 11911 15140
11755 3 11922 12355 16938
11756 6 11838 11944 12517 12555 13180 14348
11757 5 14420 15243 15244 15247 15294
11758 1 15295
11759 3 11950 15342 15343
11760 4 11951 15275 15345 15351
11761 5 11846 15275 15278 15351 15353
11762 5 11848 11997 15276 15278 15355
11763 5 17447 17450 17528 17535 17536
11764 3 15264 16999 17451
11765 2 13230 17529
11766 1 13230
11767 5 11748 13235 15258 15268 15273
11768 2 12325 15073
11769 2 13235 15268
11770 4 11748 11900 13236 15268
11771 8 13238 15076 15206 15207 17460 17461 17517 17518
11772 4 11749 11782 11858 12986
11773 1 17202
11774 5 11809 11925 12741 12970 12971
11775 3 11809 11977 12971
11776 4 11809 11961 12516 13178
11777 5 12515 12516 12553 12972 14348
11778 5 11902 11978 12561 12627 19577
11779 5 11904 12628 13184 14326 19577
11780 21 11633 11811 11812 11813 11814 11817 11905 11906 12666 12978 12986 12987 13059 15060 15061 15068 15163 15174 17705 17726 17728
11781 3 11817 11859 12986
11782 10 11749 11772 11816 11858 11945 12986 12990 15165 15185 15186
11783 8 11817 11861 11866 11979 11982 12993 13061 13062
11784 5 11862 11955 11980 13063 13064
11785 5 11823 11865 11911 11982 13062
11786 3 11866 11911 13065
11787 4 11863 12271 13001 13071
11788 3 11912 12416 13001
11789 2 11869 13071
11790 3 11968 13003 17753
11791 3 12271 17753 17771
11792 3 11982 13005 17674
11793 3 11877 12261 13009
11794 6 11826 11879 11884 12825 13005 17674
11795 4 11883 12265 13085 17753
11796 5 11920 12115 12269 13013 16938
11797 5 11888 11987 13013 13015 16938
11798 1 11890
11799 16 11882 11886 11887 11915 11916 11919 11970 11971 11989 12270 13009 13013 13015 13082 16938 17753
11800 3 11921 12051 17753
11801 8 11972 11973 12049 12175 12282 12301 13021 15139
11802 5 11894 11994 12222 12731 12971
11803 4 11809 11977 11994 13056
11804 4 11897 11960 12091 12722
11805 4 11929 11931 15126 17025
11806 4 11899 12310 12430 17202
11807 3 11901 15219 17306
11808 2 11901 13253
11809 12 11774 11775 11776 11803 11961 11977 12516 12616 12743 12970 12971 13056
11810 3 11904 11978 19577
11811 3 11780 11905 15060
11812 3 11633 11780 15060
11813 2 11780 13059
11814 5 11780 12666 12680 12984 12987
11815 2 15168 15187
11816 3 11782 11858 11945
11817 10 11780 11781 11783 11859 11866 11907 11945 11979 12986 12987
11818 5 11945 12245 12990 12994 15175
11819 3 15168 15180 15187
11820 5 11866 11908 11945 12245 12995
11821 3 11982 12640 12701
11822 2 11865 11982
11823 5 11785 11865 11911 11982 12820
11824 4 11881 13080 13088 17753
11825 4 12813 13010 17660 17673
11826 7 11794 11879 11985 12825 12881 12886 13012
11827 1 28482
11828 3 11841 15291 15333
11829 3 12002 15299 15370
11830 2 14423 15299
11831 9 11947 11948 11950 15298 15299 15322 15338 15351 15370
11832 3 15278 15322 15351
11833 4 14355 15356 19581 19634
11834 3 14355 15285 15357
11835 2 12001 15365
11836 3 12001 15281 15365
11837 5 11940 12483 15218 28393 28442
11838 9 11752 11756 11902 11944 11962 12488 12506 12625 19576
11839 2 15289 19601
11840 15 14406 15233 15236 15241 15287 15289 15306 15310 15313 15324 15325 15327 15329 15332 19631
11841 3 11828 15291 15333
11842 2 15291 19632
11843 2 15295 15370
11844 3 14420 15294 15369
11845 4 11947 15296 15297 15370
11846 5 11761 15276 15278 15353 15355
11847 5 11952 11997 14355 15277 15284
11848 5 11762 11997 15278 15280 15322
11849 3 12001 15365 19582
11850 9 12000 12001 14111 15281 15282 15283 15286 15366 15367
11851 4 12324 13236 15268 15273
11852 3 12840 13007 17668
11853 4 12840 13007 13010 17671
11854 4 11896 12302 12747 12844
11855 3 11960 12091 13057
11856 12 11932 12092 12094 12134 12181 12226 12329 12371 15088 15144 15145 17252
11857 2 11902 12627
11858 6 11750 11772 11782 11816 11945 12986
11859 5 11750 11781 11817 11945 12986
11860 4 11910 11963 11980 13063
11861 4 11783 11911 12993 13062
11862 3 11784 11980 13064
11863 14 8356 11496 11498 11506 11527 11681 11787 11910 12168 12247 12271 13001 14199 18874
11864 3 11912 13001 14199
11865 4 11785 11822 11823 11982
11866 15 11753 11754 11783 11786 11817 11820 11908 11911 11945 11981 12252 12993 12995 12999 13065
11867 3 12271 12415 13002
11868 5 12037 15082 17265 17266 17527
11869 3 11789 11957 13071
11870 2 11981 15130
11871 3 11912 13071 17770
11872 2 11967 13071
11873 3 11957 12271 13071
11874 4 11964 12109 12271 13070
11875 5 11967 12271 13071 13075 17771
11876 2 11982 17674
11877 4 11793 11914 12261 13009
11878 4 11915 12263 13006 17753
11879 7 11794 11826 11982 11985 12840 13005 17673
11880 7 12044 12046 12113 12266 12271 12417 13076
11881 9 11824 12265 12267 12271 13077 13079 13080 13088 17753
11882 5 11799 12270 12418 13082 17753
11883 8 11795 12173 12268 13081 13084 13085 17753 17772
11884 3 11794 12825 17674
11885 2 12727 17363
11886 3 11799 11919 17753
11887 5 11799 11971 11987 13013 13015
11888 4 11797 13013 13015 16938
11889 3 12119 12343 13092
11890 9 11798 11991 12048 12050 12119 12282 12343 12421 13093
11891 5 11974 11991 12121 12277 12284
11892 4 11992 12349 12423 13094
11893 3 11975 12294 13022
11894 3 11802 11994 12222
11895 5 11995 12298 12301 12361 13043
11896 7 11854 12222 12302 12768 12834 12844 13101
11897 4 11804 12091 12307 12722
11898 7 11928 11930 11996 12055 12056 12300 12430
11899 3 11806 12310 17202
11900 5 11748 11770 12325 12449 13236
11901 6 11807 11808 13253 15219 17306 17307
11902 9 11778 11838 11857 11962 11978 12625 12627 12642 14329
11903 2 11978 19577
11904 5 11779 11810 11978 14326 19577
11905 4 11780 11811 15060 15068
11906 2 11780 12986
11907 4 11817 11979 12681 12987
11908 5 11820 11866 12033 12245 12999
11909 4 11982 12664 12998 13061
11910 8 11498 11681 11860 11863 11963 11980 12271 13064
11911 11 11754 11785 11786 11823 11861 11866 12751 12820 12993 13062 15140
11912 13 11788 11864 11871 12416 12457 12458 13001 13003 13069 13071 14199 17753 17770
11913 11 12108 12253 13067 15083 17267 17268 17270 17272 17347 17348 17350
11914 7 10545 11465 11877 11970 12261 12341 13009
11915 8 11799 11878 12262 12263 13006 13009 13082 17753
11916 2 11799 11971
11917 13 12260 12340 12462 12841 12887 13089 17661 17667 17670 17674 17676 17691 17692
11918 2 12343 13088
11919 5 11799 11886 12270 13086 17753
11920 2 11796 16938
11921 4 11800 12051 12348 17753
11922 4 11755 12355 16939 16940
11923 5 12289 12355 13098 13100 16940
11924 2 12767 12971
11925 5 11774 12730 12741 12767 12971
11926 1 12307
11927 4 13055 15121 15146 17510
11928 7 11898 11995 12055 12056 12429 12430 13043
11929 5 11805 15126 17025 17026 17027
11930 9 11898 11996 12131 12180 12308 12430 13051 13102 17202
11931 14 11805 12133 12309 12311 12370 13055 13103 15122 15126 15127 15128 17025 17203 17409
11932 7 11856 12094 12369 12371 12372 13054 13055
11933 2 15232 15236
11934 1 15311
11935 4 14416 15236 15309 15312
11936 9 15295 15297 15334 15335 15336 15337 15370 19580 19673
11937 5 12002 14408 14420 15369 15370
11938 8 11949 14318 14354 15297 15337 15339 15347 15349
11939 3 14111 15281 15365
11940 3 11837 12483 28442
11941 2 12483 28498
11942 5 15147 17183 19583 19585 28498
11943 2 12483 28442
11944 4 11756 11838 11962 14348
11945 12 11750 11782 11816 11817 11818 11820 11858 11859 11866 12245 12990 12995
11946 3 12054 12833 13101
11947 6 11831 11845 15296 15297 15338 15370
11948 2 11831 15338
11949 3 11938 15297 15349
11950 11 11759 11831 15274 15297 15338 15340 15341 15342 15343 15349 15351
11951 8 11760 15275 15276 15344 15345 15346 15352 15353
11952 7 11847 11997 14355 15276 15277 15352 15354
11953 1 15280
11954 3 12001 15366 19582
11955 4 11784 13063 13064 15135
11956 4 12249 12271 13002 13064
11957 4 11869 11873 12271 13071
11958 4 12053 12294 13037 13099
11959 2 12301 13042
11960 13 11804 11855 12054 12091 12302 12307 12722 12747 13057 13101 14309 14310 17280
11961 10 11776 11809 12222 12406 12516 12518 12619 13056 13178 14347
11962 10 11838 11902 11944 12228 12611 12626 13186 14313 14329 14348
11963 6 11681 11860 11910 12384 13063 15100
11964 7 11874 12109 12257 12271 12415 13002 13068
11965 2 13075 17771
11966 3 13071 17753 17771
11967 4 11872 11875 12271 13071
11968 4 11790 12112 13003 17753
11969 4 12043 12271 13075 17771
11970 6 11799 11914 12114 12341 13009 13013
11971 4 11799 11887 11916 13013
11972 5 11801 12122 12282 13024 15139
11973 4 11801 12175 12301 17754
11974 12 11891 11991 12121 12281 12286 12294 12346 12354 12464 13020 13022 15117
11975 7 11893 12052 12294 12350 13022 13025 13097
11976 2 12354 13037
11977 5 11775 11803 11809 11994 12971
11978 9 11778 11810 11902 11903 11904 13184 14326 14329 19577
11979 6 11783 11817 11907 12664 12681 13061
11980 6 11784 11860 11862 11910 13063 13064
11981 8 11866 11870 12252 15123 15129 15130 15140 17669
11982 25 11783 11785 11792 11821 11822 11823 11865 11876 11879 11909 12041 12103 12248 12260 12640 12701 12749 12820 12840 12962 12998 13005 13061 13062 17674
11983 4 12752 15103 17669 17689
11984 1 17669
11985 7 11826 11879 12728 12881 12886 13012 17673
11986 2 17476 17548
11987 4 11797 11887 13013 13015
11988 4 12116 12274 12419 17753
11989 7 11799 12273 12279 12423 13090 16938 17753
11990 2 12346 17753
11991 12 11890 11891 11974 12050 12119 12277 12278 12281 12284 12421 13092 13093
11992 7 11892 12349 12423 12424 13095 15114 17753
11993 4 12355 15119 16938 17753
11994 7 11802 11803 11894 11977 12222 12971 13056
11995 8 11895 11928 12298 12429 12430 12466 13043 13044
11996 9 11898 11930 12055 12131 12300 12301 12429 13042 13043
11997 12 11762 11847 11848 11952 15276 15280 15284 15285 15357 15360 15361 15364
11998 1 15280
11999 2 15280 15364
12000 3 11850 15286 15366
12001 9 11835 11836 11849 11850 11954 15281 15365 15366 19582
12002 6 11829 11937 14408 14423 15299 15370
12003 2 12169 12243
12004 7 11740 12147 12148 12150 12155 12923 17843
12005 2 12155 17844
12006 3 12151 12155 17844
12007 3 12068 12159 12390
12008 3 12075 12188 13192
12009 2 12075 13149
12010 3 12393 28603 28616
12011 2 12075 13192
12012 2 12075 13149
12013 4 12071 12194 12392 12470
12014 4 12072 12392 17640 17641
12015 1 13155
12016 3 12889 12902 13159
12017 5 12201 12204 12395 12474 13154
12018 5 12084 12890 12905 16903 17022
12019 5 12550 12969 13172 17551 19573
12020 2 11740 17844
12021 5 12798 12877 13199 13285 17665
12022 4 12160 12433 14339 14340
12023 3 12447 15204 15256
12024 2 15204 15254
12025 2 15204 15256
12026 8 12404 12405 15203 15204 15255 15257 15261 15267
12027 4 12212 12533 14341 15070
12028 2 14940 15079
12029 5 12164 12240 12383 12992 14148
12030 8 12241 12334 12985 12989 15096 16731 16733 17540
12031 8 12240 14940 15079 15085 15095 17328 17333 17527
12032 4 12164 12384 12992 15100
12033 3 11908 12245 12999
12034 3 12169 15080 15187
12035 1 12473
12036 3 12087 12336 12963
12037 3 11868 15082 17527
12038 2 12252 12337
12039 1 15123
12040 1 15123
12041 3 11982 12251 12962
12042 9 12169 12171 12255 12259 12387 15081 15084 15142 17469
12043 3 11969 12271 13075
12044 2 11880 12271
12045 4 12271 13083 13087 15085
12046 5 11880 12266 12271 12417 13083
12047 2 12270 17753
12048 8 11890 12174 12271 12282 12343 13018 13087 15106
12049 4 11801 12282 12301 13018
12050 5 11890 11991 12282 12284 13024
12051 4 11800 11921 12348 17753
12052 4 11975 13022 13025 15119
12053 2 11958 12294
12054 11 11946 11960 12307 12465 12471 12832 12833 12843 13101 15086 15120
12055 5 11898 11928 11996 12300 12429
12056 3 11898 11928 12430
12057 3 12365 12379 17199
12058 5 12379 17028 17160 17199 17202
12059 7 12365 12379 12381 13048 13050 13102 17202
12060 3 12308 12431 17202
12061 2 12310 16942
12062 1 17665
12063 6 12157 12183 17572 17574 17575 17638
12064 8 12159 12663 16899 17020 17021 17151 17152 17521
12065 9 12157 12389 12663 13123 13124 13125 17021 17152 17578
12066 5 12373 13193 16905 17521 17533
12067 2 12187 17587
12068 6 12007 12159 12194 12390 12470 13149
12069 3 12191 13193 28616
12070 2 28603 28616
12071 2 12013 12392
12072 5 12014 12375 12392 13140 13141
12073 1 13141
12074 2 12194 12902
12075 11 12008 12009 12011 12012 12188 12191 12374 12902 13149 13192 13193
12076 1 12394
12077 1 13155
12078 2 12199 13150
12079 17 12193 12194 12195 12196 12197 12198 12772 12902 13144 13145 13146 13155 17593 17594 17595 17642 17643
12080 5 12198 12200 12902 13152 13155
12081 1 17597
12082 2 12203 17598
12083 3 12203 12395 17410
12084 12 12018 12200 12202 12665 12890 12902 12905 13155 13162 17022 17596 17597
12085 7 12204 12205 13163 13165 16904 17022 17597
12086 11 12891 12908 12909 12910 12929 12943 12944 12955 12956 13164 16903
12087 7 12036 12336 12962 12963 16184 19589 19590
12088 8 12352 12359 12550 12970 12972 17551 17698 19573
12089 4 12221 12359 12584 12972
12090 4 12221 12427 12743 12970
12091 8 11804 11855 11897 11960 12307 12328 12722 13057
12092 6 11856 12181 12329 12974 17196 17648
12093 3 12406 13186 14347
12094 6 11856 11932 12226 12372 12974 17246
12095 4 12332 17247 17254 17283
12096 3 12332 12454 17192
12097 3 12454 12498 17192
12098 7 12441 12455 15091 16898 16912 16937 17285
12099 10 12167 12241 12242 12259 12412 13066 15098 15151 15167 15176
12100 2 12336 12962
12101 2 12259 15084
12102 4 12169 12255 12414 15081
12103 3 11982 12248 12962
12104 2 12251 12962
12105 6 12254 12257 13002 13068 15085 15100
12106 2 12252 15123
12107 2 12260 12962
12108 5 11913 12256 12459 13067 17268
12109 5 11874 11964 13068 13070 15085
12110 5 12271 13070 13072 15085 15136
12111 8 12271 13072 13073 13074 13076 15102 15104 15136
12112 2 11968 17753
12113 7 11880 12266 13076 13083 15085 15105 15137
12114 3 11970 12341 13013
12115 4 11796 12269 12461 13013
12116 3 11988 12343 17753
12117 5 12347 13017 15085 15109 17552
12118 2 12282 13018
12119 7 11889 11890 11991 12275 12343 12421 13092
12120 5 12285 12347 15118 17552 17645
12121 6 11891 11974 12284 12425 13024 15117
12122 5 11972 13024 15117 15139 17754
12123 5 12377 17377 17551 17680 17684
12124 4 12294 12355 13100 15119
12125 2 12301 17754
12126 11 12141 12142 12288 12291 12741 12842 12970 13027 17683 17685 17696
12127 2 12359 12970
12128 5 12301 12364 13033 13035 17552
12129 2 12301 13037
12130 2 12301 13042
12131 6 11930 11996 12178 12301 13042 13102
12132 3 12305 13047 17279
12133 7 11931 12305 12370 12380 13047 13055 13103
12134 5 11856 12329 13053 15145 17648
12135 5 12311 12372 16945 17246 17253
12136 6 15071 15249 15262 15270 15273 17449
12137 5 12319 14316 14346 15253 15267
12138 5 12410 12492 12495 17182 17283
12139 2 12737 12964
12140 2 12376 13028
12141 6 12126 12842 12966 17681 17685 17696
12142 3 12126 12288 13027
12143 5 12364 13039 17028 17637 17647
12144 4 12301 12364 12365 13045
12145 2 15086 15125
12146 4 15078 15208 15210 17658
12147 23 11738 11739 11740 12004 12500 12538 12539 12541 12596 12669 12687 12698 13259 13262 17018 17256 17465 17466 17467 17634 17841 17843 17844
12148 7 12004 12698 12699 12923 13267 17657 17843
12149 2 11740 17844
12150 2 11740 12004
12151 2 12006 17844
12152 2 13283 17847
12153 5 12794 12877 13284 13285 17665
12154 1 17665
12155 17 11740 11741 11742 11743 11744 12004 12005 12006 12923 12942 12953 13283 13284 17665 17844 17845 17847
12156 5 12925 17195 17245 17257 17521
12157 4 12063 12065 12183 13123
12158 4 17533 28588 28615 28616
12159 7 12007 12064 12068 12390 12663 13149 17521
12160 6 12022 12630 14334 14337 14339 14340
12161 3 13221 15205 15273
12162 5 12407 12490 13187 13190 14352
12163 4 12397 12531 13188 14353
12164 5 12029 12032 12384 12992 14148
12165 2 15096 15134
12166 3 15096 17525 17612
12167 3 12099 12241 15167
12168 2 11863 13001
12169 15 12003 12034 12042 12102 12243 12255 12259 12387 12414 15080 15081 15123 15150 15176 15187
12170 2 12340 12460
12171 2 12042 15142
12172 1 17753
12173 3 11883 13081 17753
12174 4 12048 13018 15085 15106
12175 4 11801 11973 13021 17754
12176 1 17552
12177 5 12377 13028 17551 17684 17686
12178 4 12131 12301 12365 13102
12179 2 13051 17202
12180 3 11930 13051 17202
12181 4 11856 12092 12974 17252
12182 3 16900 16905 17521
12183 7 12063 12157 13123 17575 17576 17578 17638
12184 3 12390 12663 13126
12185 1 17578
12186 4 12374 13192 16901 16905
12187 9 12067 12390 13126 13127 13128 13129 17578 17579 17587
12188 5 12008 12075 13149 13192 17521
12189 5 12392 13136 17585 17586 17587
12190 1 13139
12191 6 12069 12075 12393 12902 13193 28616
12192 2 12772 13143
12193 4 12079 12772 13143 17594
12194 15 12013 12068 12074 12079 12392 12470 12497 12772 12902 13141 13142 13143 13149 17593 17594
12195 2 12079 13144
12196 4 12079 13145 13146 17595
12197 4 12079 13146 13155 17596
12198 4 12079 12080 12902 13155
12199 5 12078 12394 13150 13151 13156
12200 5 12080 12084 12902 13152 13155
12201 2 12017 12395
12202 2 12084 13155
12203 4 12082 12083 12395 17598
12204 9 12017 12085 12394 12395 12474 13153 13156 13163 17410
12205 4 12085 13163 13165 17410
12206 7 12526 12561 12934 13105 13185 19577 20229
12207 6 12434 12477 12885 13359 13361 15193
12208 3 12399 14337 14379
12209 3 12401 13327 14341
12210 4 12400 13325 14308 14341
12211 3 15070 15090 15152
12212 7 12027 12410 12441 12533 12615 15070 15152
12213 2 12441 12615
12214 1 14346
12215 4 12450 15205 15260 15272
12216 4 12450 12704 17145 17653
12217 3 12450 13120 17653
12218 10 12469 13222 13237 13251 13253 13290 13291 13347 13350 15078
12219 3 15078 15208 17658
12220 6 12815 13091 17551 17684 17694 19595
12221 6 12089 12090 12359 12427 12584 12970
12222 19 11802 11894 11896 11961 11994 12295 12406 12465 12487 12731 12747 12768 12832 12843 12844 12971 13056 13108 17280
12223 3 12516 12519 14348
12224 5 12451 12520 14311 14317 14347
12225 3 12451 12522 13186
12226 4 11856 12094 12974 17252
12227 2 13186 14348
12228 4 11962 12626 13186 14322
12229 8 12406 12489 12521 12523 12559 13186 17280 17281
12230 4 12451 13186 14311 14319
12231 4 12452 12562 13186 14322
12232 5 12330 12453 12526 13183 19577
12233 3 12331 12453 13183
12234 5 12331 12453 12526 13183 13185
12235 6 12408 12532 14338 14341 15093 15154
12236 4 12491 12568 13190 14337
12237 3 12571 12615 12631
12238 3 12333 12571 12631
12239 2 12441 12571
12240 6 12029 12031 12383 12992 14940 15095
12241 7 12030 12099 12167 12334 12412 15096 15167
12242 5 12099 12412 12413 15097 15134
12243 6 12003 12169 15149 15150 15168 15187
12244 2 12336 12962
12245 11 11818 11820 11908 11945 12033 12337 12994 12999 15080 15123 15187
12246 2 12460 12962
12247 2 11863 13001
12248 3 11982 12103 12962
12249 5 11956 13002 13064 15100 15135
12250 2 15084 15101
12251 3 12041 12104 12962
12252 8 11866 11981 12038 12106 12337 12999 13000 15123
12253 5 11913 13067 15084 17267 17343
12254 3 12105 13002 15100
12255 6 12042 12102 12169 12387 12414 15081
12256 4 12108 12459 13067 15084
12257 4 11964 12105 13002 13068
12258 1 15085
12259 9 12042 12099 12101 12169 13066 15084 15099 15101 15176
12260 7 11917 11982 12107 12340 12460 12962 17674
12261 6 10545 11793 11877 11914 12338 13009
12262 2 11915 17753
12263 7 11878 11915 12458 13003 13006 13009 17753
12264 1 17753
12265 4 11795 11881 13079 17753
12266 5 11880 12046 12113 12417 13083
12267 4 11881 13079 13080 17753
12268 4 11883 13081 17753 17772
12269 7 10546 10556 11796 12115 12341 12461 16938
12270 6 11799 11882 11919 12047 13086 17753
12271 37 11787 11791 11863 11867 11873 11874 11875 11880 11881 11910 11956 11957 11964 11967 11969 12043 12044 12045 12046 12048 12110 12111 12343 12415 13002 13064 13070 13071 13072 13075 13076 13077 13083 13087 13088 17753 17771
12272 1 17753
12273 5 11989 12344 12463 13090 17753
12274 2 11988 17753
12275 2 12119 13092
12276 2 12345 17546
12277 2 11891 11991
12278 3 11991 12421 13093
12279 4 11989 12423 13019 16938
12280 3 12424 15111 17753
12281 4 11974 11991 12346 13092
12282 9 11801 11890 11972 12048 12049 12050 12118 13018 13024
12283 3 12464 13020 17753
12284 5 11891 11991 12050 12121 13024
12285 1 12120
12286 2 11974 13022
12287 5 12729 12763 13023 13026 15113
12288 5 12126 12142 12970 13027 17697
12289 2 11923 13100
12290 2 12730 13031
12291 3 12126 12741 12970
12292 2 12358 13037
12293 2 12427 12970
12294 18 11893 11958 11974 11975 12053 12124 12354 12356 13022 13029 13034 13037 13097 13099 13100 15119 16940 17773
12295 5 12222 12465 12768 12833 13101
12296 2 12364 13045
12297 9 12361 12428 13036 13038 13040 16940 16941 16942 17248
12298 5 11895 11995 12361 12466 16942
12299 4 12364 12378 13041 17155
12300 4 11898 11996 12055 12429
12301 33 11801 11895 11959 11973 11996 12049 12125 12128 12129 12130 12131 12144 12178 12351 12357 12358 12360 12361 12364 12365 12428 13018 13032 13033 13037 13042 13043 13096 15115 15118 15138 17552 17754
12302 5 11854 11896 11960 12747 13101
12303 5 12430 13044 13046 16942 17249
12304 3 12430 13046 16942
12305 6 12132 12133 13047 13103 17279 17409
12306 5 15086 15088 17277 17407 17648
12307 9 11897 11926 11960 12054 12091 12328 12722 15086 15125
12308 7 11930 12060 12431 13049 13051 13102 17202
12309 4 11931 15127 15128 17203
12310 9 11806 11899 12061 12430 16942 17165 17169 17202 17251
12311 9 11931 12135 12368 12370 12372 13054 13055 17204 17253
12312 5 12434 12693 13308 15194 15195
12313 6 12436 12479 12696 13367 13368 15195
12314 4 12436 13333 13368 15196
12315 4 13333 15196 15197 17109
12316 6 12438 12439 12479 13370 13371 13373
12317 3 12445 13336 17118
12318 3 12444 14344 15152
12319 5 12137 12444 14346 15152 15253
12320 5 12445 13338 13339 13340 13341
12321 2 12447 15256
12322 3 14346 15255 15267
12323 5 13312 14345 15204 15252 15256
12324 5 11851 12448 13236 13249 15273
12325 13 11746 11748 11768 11900 12449 13216 13236 15072 15073 15074 15076 15258 15265
12326 2 12736 12963
12327 3 12726 12739 12965
12328 9 12091 12307 12467 12973 13057 14302 15086 15125 17648
12329 5 11856 12092 12134 17196 17648
12330 3 12232 12526 19577
12331 4 12233 12234 12453 13183
12332 8 12095 12096 12454 12493 12571 17192 17247 17283
12333 3 12238 12571 12631
12334 8 12030 12241 12985 12991 15167 16730 17324 17325
12335 6 16734 17331 17340 17524 17527 17613
12336 7 12036 12087 12100 12244 12821 12962 12963
12337 5 12038 12245 12252 12999 15123
12338 5 10545 10555 12261 12458 13009
12339 2 15123 17542
12340 5 11917 12170 12260 12460 12841
12341 8 10556 11465 11914 11970 12114 12269 12461 13013
12342 1 13014
12343 11 11889 11890 11918 12048 12116 12119 12271 13016 13088 13092 17753
12344 3 12273 12463 17753
12345 4 12276 12887 13014 17546
12346 7 11974 11990 12281 13016 13020 13092 17753
12347 7 12117 12120 13017 15085 15118 15138 17552
12348 5 11921 12051 12464 15119 17753
12349 5 11892 11992 13094 16938 17753
12350 4 11975 13025 13097 15119
12351 1 12301
12352 4 12088 12970 17551 17698
12353 2 12968 17686
12354 6 11974 11976 12294 13037 15117 17754
12355 10 11755 11922 11923 11993 12124 13098 13100 15119 16938 16940
12356 2 12294 13100
12357 2 12301 13037
12358 3 12292 12301 13037
12359 6 12088 12089 12127 12221 12970 12972
12360 2 12301 13037
12361 7 11895 12297 12298 12301 12428 13040 16942
12362 2 15086 15125
12363 1 15125
12364 14 12128 12143 12144 12296 12299 12301 12378 13035 13039 13041 13045 17028 17507 17646
12365 12 12057 12059 12144 12178 12301 12378 12379 13045 13102 17028 17157 17199
12366 2 13055 15121
12367 7 12468 13055 15121 15124 15143 15144 17512
12368 4 12311 12369 13054 13055
12369 5 11932 12368 13052 13054 13055
12370 4 11931 12133 12311 13055
12371 5 11856 11932 12468 13055 15144
12372 6 11932 12094 12135 12311 13054 17246
12373 4 12066 13193 17533 28616
12374 5 12075 12186 13192 13193 16905
12375 4 12072 12392 13140 13141
12376 3 12140 12967 13028
12377 5 12123 12177 17551 17680 17684
12378 6 12299 12364 12365 13045 17155 17157
12379 9 12057 12058 12059 12365 13048 13050 17160 17199 17250
12380 2 12133 13055
12381 4 12059 13050 17202 17250
12382 7 12398 12567 13189 13190 14335 14336 14353
12383 6 11680 12029 12240 14148 14198 14940
12384 7 11681 11963 12032 12164 14148 14198 15100
12385 2 15084 17343
12386 2 15084 17267
12387 3 12042 12169 12255
12388 1 15101
12389 5 12065 12663 13124 13126 17578
12390 14 12007 12068 12159 12184 12187 12470 12663 13126 13129 13130 13131 13132 13133 17581
12391 4 12470 13134 13135 17586
12392 22 12013 12014 12071 12072 12189 12194 12375 12470 13135 13136 13137 13138 13139 13141 17586 17587 17588 17589 17590 17591 17639 17640
12393 7 12010 12191 12902 28595 28599 28603 28616
12394 9 12076 12199 12204 13147 13148 13150 13153 13156 17643
12395 12 12017 12083 12201 12203 12204 13154 13157 13158 17410 17598 17643 17644
12396 2 12477 13185
12397 6 12163 12432 13188 13294 14353 14382
12398 4 12382 13189 13295 14336
12399 3 12208 14337 14379
12400 3 12210 14308 14341
12401 5 12209 13324 13328 14341 14378
12402 2 13341 14345
12403 2 15204 15254
12404 5 12026 15204 15254 15255 15266
12405 2 12026 15261
12406 7 11961 12093 12222 12229 13186 14347 17280
12407 11 12162 12490 12491 12529 12564 12566 13186 13187 13190 14332 14352
12408 4 12235 12532 13191 14338
12409 2 13191 14341
12410 11 12138 12212 12494 12495 12496 12533 12570 12571 12615 17182 17284
12411 1 17324
12412 5 12099 12241 12242 15096 15134
12413 5 12242 15097 15134 17261 17334
12414 3 12102 12169 12255
12415 4 11867 11964 12271 13002
12416 4 11788 11912 13001 13071
12417 3 11880 12046 12266
12418 2 11882 17753
12419 2 11988 17753
12420 2 17372 17548
12421 5 11890 11991 12119 12278 13093
12422 1 17753
12423 9 11892 11989 11992 12279 13019 13090 13094 16938 17753
12424 5 11992 12280 13095 15111 17753
12425 2 12121 13024
12426 2 13037 17773
12427 4 12090 12221 12293 12970
12428 7 12297 12301 12361 13037 13038 17248 17773
12429 6 11928 11995 11996 12055 12300 13043
12430 13 11806 11898 11928 11930 11995 12056 12303 12304 12310 13044 13046 16942 17202
12431 3 12060 12308 17202
12432 3 12397 14353 14382
12433 7 12022 13296 13332 14339 14340 14341 15131
12434 21 12207 12312 12477 12657 12692 12710 13292 13293 13294 13305 13306 13308 13313 13361 13362 13364 14307 14333 15193 15194 20233
12435 2 13296 14341
12436 5 12313 12314 12479 13333 13368
12437 3 12476 13302 13382
12438 4 12316 12479 13370 13371
12439 6 12316 12479 13333 13370 13373 15197
12440 3 13328 13331 14342
12441 13 12098 12212 12213 12239 12571 12615 12631 15091 15152 15201 15248 15271 17285
12442 5 13329 13330 13335 14344 15152
12443 1 17117
12444 9 12318 12319 13328 13331 13335 14342 14344 14346 15152
12445 32 12317 12320 12479 12480 13302 13307 13310 13311 13313 13334 13336 13337 13338 13341 13367 13369 13372 13373 13376 13377 15197 15198 15199 16947 16948 17062 17063 17112 17116 17118 17244 20233
12446 7 12472 13341 13351 14343 14345 14346 15266
12447 6 12023 12321 14345 15204 15256 15266
12448 9 12324 13236 13248 13249 13250 13287 13303 13345 15273
12449 4 11900 12325 13216 13236
12450 17 12215 12216 12217 12481 12482 12899 12917 13120 13287 13303 13304 15205 15259 15272 15273 17145 17653
12451 7 12224 12225 12230 12522 13186 14311 14347
12452 3 12231 12562 13186
12453 8 12232 12233 12234 12331 13183 13185 14314 19577
12454 6 12096 12097 12332 12498 12571 17192
12455 3 12098 16937 17285
12456 1 15123
12457 2 11912 13003
12458 9 8361 8393 10555 11912 12263 12338 13003 13009 14199
12459 5 12108 12256 15084 17268 17349
12460 9 12170 12246 12260 12340 12736 12821 12841 12962 12964
12461 4 12115 12269 12341 13013
12462 5 11917 12887 13014 13089 17701
12463 4 12273 12344 13090 17753
12464 7 11974 12283 12348 13020 13022 15119 17753
12465 6 12054 12222 12295 12768 12832 12833
12466 5 11995 12298 13044 16942 17249
12467 3 12328 15086 17648
12468 4 12367 12371 13055 15144
12469 9 12218 12482 13116 13120 13212 13290 13350 15078 17658
12470 9 12013 12068 12194 12390 12391 12392 13133 13134 13135
12471 5 12054 15086 15120 17553 17615
12472 3 12446 14346 15266
12473 8 12035 13066 15084 15098 15099 17262 17336 17337
12474 5 12017 12204 13153 13154 17643
12475 2 13302 13313
12476 4 12437 13302 13369 13382
12477 7 12207 12396 12434 12883 12885 13185 14333
12478 2 13302 13313
12479 13 12313 12316 12436 12438 12439 12445 13309 13333 13367 13370 13371 13372 13373
12480 4 12445 13302 13311 13334
12481 2 12450 13304
12482 5 12450 12469 13120 13290 13304
12483 7 11837 11940 11941 11943 15218 28442 28498
12484 2 12585 12972
12485 2 12550 12972
12486 3 12550 12618 13179
12487 3 12222 13108 17280
12488 2 11838 19576
12489 5 12229 12523 12559 13058 17280
12490 4 12162 12407 13187 14352
12491 10 12236 12407 12564 12565 12566 12630 13186 13190 14334 14337
12492 3 12138 17182 17283
12493 3 12332 12571 17283
12494 6 12410 12533 12569 12570 14341 17283
12495 5 12138 12410 12571 17283 17284
12496 2 12410 17284
12497 2 12194 13149
12498 5 12097 12454 12571 16937 17192
12499 2 12664 12998
12500 4 12147 12596 12669 12697
12501 2 12745 19600
12502 2 12552 19576
12503 4 12620 12671 13179 19576
12504 3 12620 13179 19576
12505 3 11751 13179 19576
12506 5 11752 11838 12556 13181 19576
12507 3 12561 13105 19570
12508 3 12575 12635 17732
12509 16 12573 12574 12589 12590 12608 12635 12961 12976 12979 12980 12981 16626 17706 17714 17730 17732
12510 2 12577 12636
12511 2 12583 12961
12512 3 12949 13265 17658
12513 2 12959 17658
12514 4 12858 13272 17817 17818
12515 4 11777 12546 12553 12972
12516 10 11776 11777 11809 11961 12223 12544 12616 12972 13178 14348
12517 6 11751 11756 12553 12555 13180 14348
12518 2 11961 14347
12519 3 12223 14317 14348
12520 2 12224 14317
12521 2 12229 13186
12522 3 12225 12451 13186
12523 8 12229 12489 12559 12609 13058 14320 14334 17281
12524 2 12611 13186
12525 3 12611 13186 14313
12526 7 12206 12232 12234 12330 13183 13185 19577
12527 1 14334
12528 2 13186 14315
12529 2 12407 13186
12530 2 14304 14334
12531 2 12163 13188
12532 6 12235 12408 13191 14341 15094 15154
12533 5 12027 12212 12410 12494 14341
12534 8 12633 12634 12643 12680 12682 12984 12987 12998
12535 3 12596 17013 17014
12536 4 12706 17618 17619 17654
12537 7 12706 17619 17621 17654 17655 17657 17810
12538 4 12147 12596 13258 17256
12539 2 12147 13259
12540 4 13114 13116 13260 17658
12541 2 12147 17467
12542 1 17813
12543 8 12639 12733 12735 12961 12962 16180 19588 19635
12544 6 12516 12584 12585 12616 12743 12972
12545 2 12694 19576
12546 2 12515 12972
12547 2 12694 19576
12548 1 19570
12549 3 12689 12694 19576
12550 20 12019 12088 12485 12486 12586 12618 12670 12690 12779 12783 12972 13171 13172 13173 13174 13177 13179 19573 19575 19576
12551 2 12694 19576
12552 3 12502 12671 19576
12553 7 11751 11777 12515 12517 12618 12972 14348
12554 2 12621 19576
12555 4 11756 12517 12819 14348
12556 5 12506 12672 12673 13181 19576
12557 2 13104 19570
12558 4 12587 12617 12695 19570
12559 3 12229 12489 12523
12560 3 12587 12700 19570
12561 8 11778 12206 12507 12627 12700 13105 19570 19577
12562 4 12231 12452 13186 14322
12563 3 12588 14304 14334
12564 3 12407 12491 13186
12565 6 12491 12610 13186 14315 14334 14351
12566 3 12407 12491 13190
12567 4 12382 13189 13190 13295
12568 5 12236 13190 13295 14337 14379
12569 6 12494 14341 15132 15133 15169 17283
12570 4 12410 12494 17182 17283
12571 17 12237 12238 12239 12332 12333 12410 12441 12454 12493 12495 12498 12615 12631 16937 17283 17284 17285
12572 3 12643 12998 17728
12573 2 12509 12979
12574 4 12509 12980 12981 17714
12575 7 12508 12632 12635 12645 12961 12998 17732
12576 2 12637 12961
12577 4 12510 12636 12639 12961
12578 4 12592 12646 12961 13060
12579 3 12640 12645 12998
12580 3 12639 12646 12961
12581 3 12638 12639 12961
12582 2 12639 12962
12583 12 12511 12591 12637 12639 12640 12645 12647 12691 12961 12962 12988 12996
12584 5 12089 12221 12544 12743 12972
12585 3 12484 12544 12972
12586 3 12550 12618 12972
12587 5 12558 12560 12695 12700 19570
12588 6 12563 13186 14323 14334 14351 17281
12589 6 12509 12608 12981 12982 17714 17733
12590 3 12509 12608 12961
12591 2 12583 12961
12592 3 12578 12646 12961
12593 2 13120 17653
12594 2 13120 17653
12595 6 12697 12705 13257 17011 17012 17617
12596 14 12147 12500 12535 12538 12697 13257 13258 16861 16862 17010 17012 17013 17014 17713
12597 1 17657
12598 1 17657
12599 2 13122 17658
12600 3 12708 13261 17657
12601 3 13118 17632 17657
12602 2 12846 17633
12603 13 12846 12849 12949 13118 13119 13121 13122 13263 13264 17632 17633 17657 17658
12604 6 12861 12922 13243 13266 17635 17657
12605 3 12922 13247 13266
12606 4 12855 12959 13272 17658
12607 9 12853 12855 12860 13226 13246 13272 17658 17816 17817
12608 5 12509 12589 12590 12961 17733
12609 6 12523 13058 14320 14321 14334 15153
12610 2 12565 13186
12611 5 11962 12524 12525 13186 14313
12612 3 13186 14313 14329
12613 2 13188 14352
12614 3 12657 13188 14307
12615 7 12212 12213 12237 12410 12441 12571 12631
12616 4 11809 12516 12544 12743
12617 2 12558 19570
12618 7 11751 12486 12550 12553 12586 12972 13179
12619 2 11961 13178
12620 4 12503 12504 13179 19576
12621 3 12554 12641 19576
12622 4 13186 14317 14319 14348
12623 1 19576
12624 2 12700 19570
12625 5 11838 11902 12641 12642 19576
12626 4 11962 12228 13186 14322
12627 8 11778 11857 11902 12561 12642 12694 19570 19576
12628 3 11779 13184 19577
12629 2 13188 14335
12630 4 12160 12491 14334 14337
12631 6 12237 12238 12333 12441 12571 12615
12632 2 12575 12998
12633 2 12534 12998
12634 3 12534 12679 12998
12635 5 12508 12509 12575 12961 17732
12636 3 12510 12577 12961
12637 3 12576 12583 12961
12638 2 12581 12961
12639 9 12543 12577 12580 12581 12582 12583 12646 12961 12962
12640 12 11821 11982 12579 12583 12645 12647 12674 12691 12701 12988 12996 12998
12641 3 12621 12625 19576
12642 4 11902 12625 12627 19576
12643 6 12534 12572 12666 12984 12998 17728
12644 2 12681 12987
12645 7 12575 12579 12583 12640 12961 12988 12998
12646 5 12578 12580 12592 12639 12961
12647 3 12583 12640 12996
12648 2 13120 17653
12649 4 12705 17011 17616 17617
12650 5 12706 13120 17622 17653 17657
12651 5 12707 12937 13320 13321 17627
12652 6 12707 12938 12939 13321 13322 13323
12653 3 12848 17635 17657
12654 4 12941 12959 13256 13268
12655 2 19665 19681
12656 2 19666 19681
12657 5 12434 12614 13188 13294 14307
12658 1 19665
12659 2 19665 19681
12660 2 19665 19681
12661 1 19681
12662 6 11731 14377 19545 19561 19666 19681
12663 8 12064 12065 12159 12184 12389 12390 13126 17152
12664 8 11909 11979 12499 12681 12682 12987 12998 13061
12665 3 12084 13162 17022
12666 5 11780 11814 12643 12984 17728
12667 2 12697 12711
12668 3 12687 12697 12711
12669 5 12147 12500 12687 12697 13259
12670 2 12550 19575
12671 3 12503 12552 19576
12672 2 12556 19576
12673 2 12556 19576
12674 4 12640 12691 12701 12962
12675 1 28601
12676 2 28593 28602
12677 8 17257 17314 17520 17521 17532 17533 28602 28613
12678 2 28590 28595
12679 2 12634 12998
12680 4 11814 12534 12984 12987
12681 5 11907 11979 12644 12664 12987
12682 4 12534 12664 12987 12998
12683 1 17779
12684 1 17781
12685 1 17787
12686 6 16916 17713 17777 17782 17784 17787
12687 10 12147 12668 12669 12697 12707 12708 12711 12712 13261 13262
12688 1 17657
12689 6 12549 12694 12744 12745 19570 19576
12690 4 12550 12746 19575 19576
12691 5 12583 12640 12674 12962 12996
12692 4 12434 12703 12710 15194
12693 3 12312 15194 15195
12694 8 12545 12547 12549 12551 12627 12689 19570 19576
12695 4 12558 12587 13104 19570
12696 6 12313 13368 15195 15196 16946 17241
12697 11 12500 12595 12596 12667 12668 12669 12687 12705 12711 13257 13318
12698 5 12147 12148 13262 17657 17843
12699 3 12148 13267 17657
12700 5 12560 12561 12587 12624 19570
12701 5 11821 11982 12640 12674 12962
12702 1 15193
12703 3 12692 12710 15194
12704 8 12216 12935 13314 13343 13344 17145 17653 17809
12705 10 12595 12649 12697 13315 13316 13317 13318 17616 17617 17787
12706 9 12536 12537 12650 17619 17621 17622 17623 17653 17657
12707 8 12651 12652 12687 12711 12712 13320 13321 13323
12708 5 12600 12687 13261 13262 17657
12709 2 12799 15193
12710 7 12434 12692 12703 15193 15194 17106 17240
12711 8 12667 12668 12687 12697 12707 13318 13319 13320
12712 5 12687 12707 13261 13323 17657
12713 6 12742 16521 16522 19570 19574 19600
12714 2 12779 19575
12715 3 12778 13170 19575
12716 7 12746 12778 12805 12879 13169 13170 19575
12717 2 12742 19600
12718 2 12742 19600
12719 7 12742 12745 12807 12808 19570 19600 19640
12720 3 12750 12821 12963
12721 2 12736 12963
12722 5 11804 11897 11960 12091 12307
12723 3 12856 12860 17816
12724 2 12798 13220
12725 3 12841 13008 17670
12726 2 12327 12739
12727 5 11885 12828 17277 17363 17548
12728 6 11985 12881 17277 17660 17661 17673
12729 4 12287 13026 15113 17546
12730 7 11925 12290 12741 12842 12971 13031 15120
12731 3 11802 12222 12971
12732 5 12877 12922 12951 12953 13284
12733 4 12543 12961 19586 19635
12734 3 16180 19587 19635
12735 9 12543 12962 16180 16181 16184 16256 19588 19589 19636
12736 10 12326 12460 12721 12773 12821 12963 12964 19590 19592 19606
12737 7 12139 12822 12841 12964 12965 13078 19592
12738 2 12966 19595
12739 14 12327 12726 12801 12814 12827 12829 12965 12966 13011 13228 17672 17675 19592 19594
12740 5 12804 19575 19597 19622 19623
12741 7 11774 11925 12126 12291 12730 12842 12970
12742 6 12713 12717 12718 12719 19570 19600
12743 6 11809 12090 12544 12584 12616 12970
12744 2 12689 19576
12745 7 12501 12689 12719 19570 19576 19600 19641
12746 12 12690 12716 12780 12781 12809 12879 12880 13175 13176 19575 19576 19599
12747 7 11854 11960 12222 12302 12844 13108 14309
12748 2 12821 12963
12749 2 11982 12962
12750 2 12720 12963
12751 4 11911 12820 15130 15140
12752 8 11983 12840 13004 15103 15130 17666 17689 17700
12753 2 17660 17666
12754 1 12841
12755 2 12822 12965
12756 3 12823 12841 12965
12757 2 12887 13014
12758 2 12966 17675
12759 3 12966 17675 17677
12760 3 12966 17662 17678
12761 4 12842 12887 17662 17664
12762 5 12831 12887 15110 15112 17546
12763 5 12287 12831 12842 13023 13026
12764 5 12842 13026 15116 15120 17547
12765 2 12842 13031
12766 4 12842 13030 13031 15120
12767 3 11924 11925 12971
12768 5 11896 12222 12295 12465 13101
12769 2 15190 20230
12770 4 12884 15190 15192 17061
12771 3 13360 15193 20230
12772 5 12079 12192 12193 12194 13143
12773 4 12736 19590 19592 19607
12774 5 12800 12801 19591 19592 19608
12775 7 13228 16209 19593 19594 19595 19611 19612
12776 2 19598 19643
12777 4 19598 19600 19639 19643
12778 4 12715 12716 13170 19575
12779 5 12550 12714 12969 13172 19575
12780 4 12746 12806 19575 19599
12781 2 12746 19575
12782 4 19576 19600 19641 19643
12783 2 12550 13173
12784 2 12857 13274
12785 3 12960 13273 13275
12786 2 12960 13275
12787 4 12859 12861 13270 13279
12788 3 12861 13273 13279
12789 4 12859 13255 13256 13279
12790 5 12867 12871 13275 13276 13278
12791 4 12874 12875 13278 17823
12792 3 12877 13204 17822
12793 1 17823
12794 4 12153 12877 13281 13284
12795 4 12877 13204 17824 17838
12796 4 12876 12878 13204 17825
12797 1 17825
12798 12 12021 12724 12876 12877 13199 13208 13215 13220 13282 17665 17825 17826
12799 6 12709 12884 15192 15193 17061 20230
12800 7 12774 16193 16200 19591 19592 19608 19609
12801 9 12739 12774 16205 16209 19591 19592 19594 19609 19610
12802 2 19575 19622
12803 8 12818 12967 16226 16229 17545 19596 19618 19637
12804 6 12740 16227 19575 19597 19622 19623
12805 4 12716 13169 13170 19575
12806 3 12780 19575 19599
12807 2 12719 19600
12808 2 12719 19600
12809 5 12746 19575 19576 19599 19624
12810 4 12849 12888 17633 17635
12811 2 12959 17658
12812 4 13255 17819 17820 17837
12813 3 11825 13010 17660
12814 2 12739 19592
12815 3 12220 19595 19619
12816 3 17545 19596 19619
12817 2 17545 19596
12818 3 12803 12967 19637
12819 2 12555 14348
12820 6 11823 11911 11982 12751 12840 15130
12821 8 12336 12460 12720 12736 12748 12839 12962 12963
12822 4 12737 12755 12841 12965
12823 4 12756 12841 12965 17672
12824 3 13010 17660 17671
12825 6 11794 11826 11884 12881 17661 17674
12826 1 12887
12827 5 12739 12887 12966 17662 17672
12828 4 12727 17363 17483 17548
12829 3 12739 12966 17675
12830 3 12887 15110 17546
12831 6 12762 12763 12842 12887 13023 15112
12832 4 12054 12222 12465 12843
12833 5 11946 12054 12295 12465 13101
12834 2 11896 13101
12835 5 13353 15229 17101 17102 19569
12836 8 12934 13353 13354 15227 15229 17105 19571 19572
12837 6 12919 12934 13355 17103 17105 19571
12838 2 13228 19594
12839 2 12821 12963
12840 14 11852 11853 11879 11982 12752 12820 13004 13007 13010 15130 17660 17666 17668 17673
12841 16 11917 12340 12460 12725 12737 12754 12756 12822 12823 12964 12965 13008 17667 17670 17672 17676
12842 17 12126 12141 12730 12741 12761 12763 12764 12765 12766 12831 12887 13026 13031 15120 17664 17681 17685
12843 5 12054 12222 12832 12971 15120
12844 4 11854 11896 12222 12747
12845 2 17633 17657
12846 3 12602 12603 17633
12847 3 12959 13265 17658
12848 3 12653 17635 17657
12849 9 12603 12810 12941 12949 12959 13244 13265 17633 17635
12850 1 17658
12851 1 17658
12852 1 17658
12853 4 12607 13226 13246 17816
12854 2 13256 13270
12855 4 12606 12607 13272 17658
12856 1 12723
12857 3 12784 13274 17835
12858 7 12514 12959 13269 13272 13274 17818 17835
12859 5 12787 12789 13256 13270 13279
12860 4 12607 12723 17816 17817
12861 12 12604 12787 12788 12922 12951 12960 13244 13256 13270 13273 13279 17635
12862 2 12960 13275
12863 1 17837
12864 1 13279
12865 1 13279
12866 2 17818 17836
12867 4 12790 12951 13275 13278
12868 2 17819 17837
12869 1 13279
12870 2 13255 13279
12871 3 12790 13276 13278
12872 1 13279
12873 2 12951 17823
12874 4 12791 12951 13278 17823
12875 5 12791 12952 13277 13278 17823
12876 6 12796 12798 13204 13213 13282 17825
12877 17 12021 12153 12732 12792 12794 12795 12798 12951 13204 13213 13281 13282 13284 13285 17822 17823 17824
12878 3 12796 13204 17825
12879 4 12716 12746 13169 19575
12880 3 12746 13175 19575
12881 6 11826 11985 12728 12825 12886 17661
12882 7 13185 13355 13356 13357 17105 20229 20230
12883 2 12477 13185
12884 5 12770 12799 15190 15192 20230
12885 5 12207 12477 13185 13359 15193
12886 4 11826 11985 12881 13012
12887 17 11917 12345 12462 12757 12761 12762 12826 12827 12830 12831 12842 13014 15110 17546 17662 17672 17676
12888 4 12810 17633 17635 17657
12889 5 12016 12902 12907 12929 13159
12890 6 12018 12084 12902 12905 13160 16903
12891 2 12086 16903
12892 2 12911 13168
12893 2 12911 13168
12894 3 12913 12930 13167
12895 3 13168 17024 28607
12896 9 12897 12910 13167 16868 16869 16903 16906 17022 17024
12897 4 12896 16868 16904 17024
12898 1 15205
12899 2 12450 17145
12900 3 17191 17520 28613
12901 3 16900 16905 17521
12902 23 12016 12074 12075 12079 12080 12084 12191 12194 12198 12200 12393 12889 12890 12927 12928 12929 13149 13159 13160 28587 28590 28595 28597
12903 4 12929 13160 13161 16903
12904 4 12929 13161 13164 16903
12905 3 12018 12084 12890
12906 2 12929 13164
12907 8 12889 12928 12929 12931 12946 12956 13159 28609
12908 4 12086 12929 12943 13164
12909 2 12086 12956
12910 6 12086 12896 12930 12944 13167 16903
12911 5 12892 12893 12931 13166 13168
12912 3 12945 12956 13168
12913 4 12894 12930 12956 13167
12914 2 12945 13167
12915 2 12931 13168
12916 5 12932 12945 13167 13168 17024
12917 3 12450 15205 17145
12918 4 13252 13253 13352 15212
12919 3 12837 12934 19571
12920 2 13322 17657
12921 3 13243 13266 17657
12922 8 12604 12605 12732 12861 12951 12953 13247 13266
12923 8 12004 12148 12155 12942 12953 13247 13267 17657
12924 1 12951
12925 4 12156 17195 17257 17568
12926 2 16900 17521
12927 2 12902 13160
12928 5 12902 12907 13159 28597 28609
12929 14 12086 12889 12902 12903 12904 12906 12907 12908 12943 12954 12956 13160 13161 13164
12930 6 12894 12910 12913 12944 12956 13167
12931 14 12907 12911 12915 12946 12947 12956 13166 13168 28606 28607 28609 28610 28611 28612
12932 2 12916 13167
12933 1 13253
12934 13 12206 12836 12837 12919 13105 13109 13355 15223 15227 15228 19569 19571 20229
12935 4 12704 13343 13344 17145
12936 4 13218 13253 15210 15220
12937 2 12651 13320
12938 5 12652 13321 13322 17627 17657
12939 4 12652 13322 13323 17657
12940 1 17657
12941 5 12654 12849 12959 13244 13256
12942 3 12155 12923 12953
12943 3 12086 12908 12929
12944 4 12086 12910 12930 12956
12945 6 12912 12914 12916 12956 13167 13168
12946 3 12907 12931 28609
12947 2 12931 28609
12948 4 11297 11633 15051 16626
12949 6 12512 12603 12849 13264 13265 17658
12950 1 12959
12951 12 12732 12861 12867 12873 12874 12877 12922 12924 12960 13275 13278 17823
12952 4 12875 13277 13280 17823
12953 7 12155 12732 12922 12923 12942 13247 13284
12954 1 12929
12955 2 12086 13164
12956 12 12086 12907 12909 12912 12913 12929 12930 12931 12944 12945 13167 13168
12957 7 11624 11670 14972 14976 15054 15064 15065
12958 6 11629 11631 11670 14972 15058 16626
12959 15 12513 12606 12654 12811 12847 12849 12858 12941 12950 13265 13268 13269 13272 17658 17835
12960 7 12785 12786 12861 12862 12951 13273 13275
12961 25 12509 12511 12543 12575 12576 12577 12578 12580 12581 12583 12590 12591 12592 12608 12635 12636 12637 12638 12639 12645 12646 12733 13060 17733 19586
12962 25 11982 12041 12087 12100 12103 12104 12107 12244 12246 12248 12251 12260 12336 12460 12543 12582 12583 12639 12674 12691 12701 12735 12749 12821 19589
12963 12 12036 12087 12326 12336 12720 12721 12736 12748 12750 12821 12839 19590
12964 6 12139 12460 12736 12737 12841 19592
12965 11 12327 12737 12739 12755 12756 12822 12823 12841 13078 17672 19592
12966 24 12141 12738 12739 12758 12759 12760 12827 12829 13228 17544 17551 17662 17675 17677 17678 17679 17681 17683 17687 17693 17695 17696 17699 19595
12967 5 12376 12803 12818 16229 19637
12968 3 12353 17686 19575
12969 5 12019 12779 13172 17551 17686
12970 17 11774 11809 12088 12090 12126 12127 12221 12288 12291 12293 12352 12359 12427 12741 12743 17551 17697
12971 14 11774 11775 11802 11809 11924 11925 11977 11994 12222 12730 12731 12767 12843 15120
12972 17 11777 12088 12089 12359 12484 12485 12515 12516 12544 12546 12550 12553 12584 12585 12586 12618 13174
12973 4 12328 13057 14302 17648
12974 10 12092 12094 12181 12226 16831 16892 16931 17037 17196 17252
12975 3 15022 15172 17650
12976 2 12509 17714
12977 3 15148 15168 17322
12978 5 11780 15148 15162 15163 15174
12979 3 12509 12573 17732
12980 3 12509 12574 17714
12981 4 12509 12574 12589 17714
12982 3 12589 17714 17733
12983 1 15148
12984 5 11814 12534 12643 12666 12680
12985 4 12030 12334 16730 16731
12986 14 11749 11750 11772 11780 11781 11782 11817 11858 11859 11906 15148 15165 15174 15185
12987 10 11780 11814 11817 11907 12534 12644 12664 12680 12681 12682
12988 3 12583 12640 12645
12989 1 12030
12990 8 11782 11818 11945 15148 15166 15168 15175 15186
12991 6 12334 15164 15167 15176 15183 17324
12992 7 12029 12032 12164 12240 15085 15095 15100
12993 4 11783 11861 11866 11911
12994 4 11818 12245 15175 15187
12995 3 11820 11866 11945
12996 4 12583 12640 12647 12691
12997 7 15150 15168 15176 15183 15184 17651 17652
12998 22 11909 11982 12499 12534 12572 12575 12579 12632 12633 12634 12640 12643 12645 12664 12679 12682 16626 17727 17728 17731 17732 17735
12999 6 11866 11908 12033 12245 12252 12337
13000 1 12252
13001 10 11787 11788 11863 11864 11912 12168 12247 12416 13071 14199
13002 10 11867 11956 11964 12105 12249 12254 12257 12271 12415 15100
13003 7 11790 11912 11968 12263 12457 12458 17753
13004 4 12752 12840 17666 17700
13005 5 11792 11794 11879 11982 17674
13006 3 11878 11915 12263
13007 7 11852 11853 12840 17660 17668 17671 17690
13008 2 12725 12841
13009 10 11793 11799 11877 11914 11915 11970 12261 12263 12338 12458
13010 8 11825 11853 12813 12824 12840 17660 17671 17673
13011 1 12739
13012 3 11826 11985 12886
13013 13 11796 11797 11799 11887 11888 11970 11971 11987 12114 12115 12341 12461 16938
13014 7 12342 12345 12462 12757 12887 17546 17701
13015 6 11797 11799 11887 11888 11987 16938
13016 4 12343 12346 13092 17753
13017 4 12117 12347 15109 17552
13018 8 12048 12049 12118 12174 12282 12301 15085 15138
13019 3 12279 12423 16938
13020 5 11974 12283 12346 12464 17753
13021 4 11801 12175 15139 17754
13022 8 11893 11974 11975 12052 12286 12294 12464 15119
13023 6 12287 12763 12831 15112 15113 17546
13024 8 11972 12050 12121 12122 12282 12284 12425 15117
13025 4 11975 12052 12350 15119
13026 9 12287 12729 12763 12764 12842 15116 17383 17546 17547
13027 10 12126 12142 12288 17551 17679 17682 17683 17695 17697 17699
13028 6 12140 12177 12376 17545 17684 17688
13029 2 12294 15119
13030 2 12766 15120
13031 6 12290 12730 12765 12766 12842 15120
13032 2 12301 17552
13033 3 12128 12301 17552
13034 4 12294 16940 17248 17773
13035 4 12128 12364 17552 17646
13036 2 12297 16942
13037 15 11958 11976 12129 12292 12294 12301 12354 12357 12358 12360 12426 12428 13099 17754 17773
13038 2 12297 12428
13039 5 12143 12364 17637 17646 17647
13040 3 12297 12361 16942
13041 3 12299 12364 17155
13042 5 11959 11996 12130 12131 12301
13043 6 11895 11928 11995 11996 12301 12429
13044 5 11995 12303 12430 12466 17249
13045 5 12144 12296 12364 12365 12378
13046 4 12303 12304 12430 16942
13047 3 12132 12133 12305
13048 2 12059 12379
13049 1 12308
13050 4 12059 12379 12381 17250
13051 5 11930 12179 12180 12308 17202
13052 1 12369
13053 4 12134 15088 15145 17648
13054 5 11932 12311 12368 12369 12372
13055 16 11927 11931 11932 12133 12311 12366 12367 12368 12369 12370 12371 12380 12468 15121 15146 17510
13056 5 11803 11809 11961 11994 12222
13057 14 11855 11960 12091 12328 12973 13106 13182 14302 14310 17037 17174 17196 17280 17648
13058 10 12489 12523 12609 13107 14312 14320 14321 15092 17037 17280
13059 2 11780 11813
13060 2 12578 12961
13061 5 11783 11909 11979 11982 12664
13062 5 11783 11785 11861 11911 11982
13063 7 11784 11860 11955 11963 11980 15100 15135
13064 9 11784 11862 11910 11955 11956 11980 12249 12271 15135
13065 3 11753 11786 11866
13066 5 12099 12259 12473 15098 15099
13067 5 11913 12108 12253 12256 15084
13068 5 11964 12105 12109 12257 15085
13069 2 11912 17770
13070 5 11874 12109 12110 12271 15085
13071 17 11787 11789 11869 11871 11872 11873 11875 11912 11957 11966 11967 12271 12416 13001 17753 17770 17771
13072 4 12110 12111 12271 15136
13073 4 12111 15085 15102 15136
13074 4 12111 15085 15102 15104
13075 6 11875 11965 11969 12043 12271 17771
13076 6 11880 12111 12113 12271 15085 15104
13077 3 11881 12271 17753
13078 2 12737 12965
13079 4 11881 12265 12267 17753
13080 4 11824 11881 12267 17753
13081 4 11883 12173 12268 17753
13082 4 11799 11882 11915 17753
13083 7 12045 12046 12113 12266 12271 15085 15105
13084 2 11883 17753
13085 3 11795 11883 17753
13086 3 11919 12270 17753
13087 5 12045 12048 12271 15085 15106
13088 6 11824 11881 11918 12271 12343 17753
13089 4 11917 12462 17692 17701
13090 5 11989 12273 12423 12463 17753
13091 2 12220 17694
13092 8 11889 11991 12119 12275 12281 12343 12346 13016
13093 4 11890 11991 12278 12421
13094 4 11892 12349 12423 16938
13095 3 11992 12424 17753
13096 3 12301 15118 17552
13097 4 11975 12294 12350 15119
13098 3 11923 12355 16940
13099 4 11958 12294 13037 17773
13100 7 11923 12124 12289 12294 12355 12356 16940
13101 9 11896 11946 11960 12054 12295 12302 12768 12833 12834
13102 7 11930 12059 12131 12178 12308 12365 17202
13103 4 11931 12133 12305 17409
13104 3 12557 12695 19570
13105 6 12206 12507 12561 12934 13109 19570
13106 1 13057
13107 2 13058 14321
13108 5 12222 12487 12747 14309 17280
13109 4 12934 13105 15223 19570
13110 1 17653
13111 1 17653
13112 1 17653
13113 7 13120 17620 17624 17625 17626 17657 17658
13114 2 12540 17658
13115 1 17658
13116 4 12469 12540 13260 17658
13117 3 13121 17629 17658
13118 5 12601 12603 13121 17632 17657
13119 4 12603 13122 13263 17658
13120 13 12217 12450 12469 12482 12593 12594 12648 12650 13113 17624 17653 17657 17658
13121 8 12603 13117 13118 17628 17629 17630 17657 17658
13122 6 12599 12603 13119 17631 17656 17658
13123 4 12065 12157 12183 17578
13124 2 12065 12389
13125 2 12065 17578
13126 6 12184 12187 12389 12390 12663 17578
13127 1 12187
13128 1 12187
13129 3 12187 12390 17579
13130 1 12390
13131 3 12390 17580 17581
13132 1 12390
13133 2 12390 12470
13134 2 12391 12470
13135 4 12391 12392 12470 17586
13136 3 12189 12392 17587
13137 1 12392
13138 2 12392 17639
13139 2 12190 12392
13140 2 12072 12375
13141 5 12072 12073 12194 12375 12392
13142 1 12194
13143 5 12192 12193 12194 12772 17594
13144 3 12079 12195 17642
13145 3 12079 12196 17595
13146 4 12079 12196 12197 17596
13147 1 12394
13148 1 12394
13149 10 12009 12012 12068 12075 12159 12188 12194 12497 12902 17521
13150 3 12078 12199 12394
13151 1 12199
13152 2 12080 12200
13153 3 12204 12394 12474
13154 3 12017 12395 12474
13155 10 12015 12077 12079 12080 12084 12197 12198 12200 12202 17596
13156 3 12199 12204 12394
13157 1 12395
13158 1 12395
13159 5 12016 12889 12902 12907 12928
13160 6 12890 12902 12903 12927 12929 16903
13161 4 12903 12904 12929 16903
13162 3 12084 12665 17022
13163 4 12085 12204 12205 17410
13164 7 12086 12904 12906 12908 12929 12955 16903
13165 3 12085 12205 16904
13166 3 12911 12931 13168
13167 11 12894 12896 12910 12913 12914 12916 12930 12932 12945 12956 17024
13168 13 12892 12893 12895 12911 12912 12915 12916 12931 12945 12956 13166 17024 28607
13169 4 12716 12805 12879 19575
13170 5 12715 12716 12778 12805 19575
13171 2 12550 19575
13172 4 12019 12550 12779 12969
13173 3 12550 12783 19575
13174 2 12550 12972
13175 3 12746 12880 19575
13176 2 12746 19575
13177 2 12550 19575
13178 4 11776 11961 12516 12619
13179 9 11751 12486 12503 12504 12505 12550 12618 12620 19576
13180 3 11751 11756 12517
13181 3 12506 12556 19576
13182 4 13057 17037 17174 17196
13183 6 12232 12233 12234 12331 12453 12526
13184 12 11779 11978 12628 14307 14314 14326 14329 14330 14333 14349 14350 19577
13185 14 12206 12234 12396 12453 12477 12526 12882 12883 12885 14314 14333 15193 20229 20230
13186 39 11962 12093 12225 12227 12228 12229 12230 12231 12406 12407 12451 12452 12491 12521 12522 12524 12525 12528 12529 12562 12564 12565 12588 12610 12611 12612 12622 12626 14303 14313 14315 14319 14322 14329 14332 14347 14348 14351 17281
13187 3 12162 12407 12490
13188 13 12163 12397 12531 12613 12614 12629 12657 13294 14306 14307 14335 14352 14353
13189 4 12382 12398 12567 13295
13190 12 12162 12236 12382 12407 12491 12566 12567 12568 13295 14335 14352 14379
13191 5 12408 12409 12532 14338 14341
13192 8 12008 12011 12075 12186 12188 12374 16905 17521
13193 8 12066 12069 12075 12191 12373 12374 16905 28616
13194 2 13204 17825
13195 1 13215
13196 2 13209 17665
13197 2 13204 13213
13198 2 13204 17838
13199 4 12021 12798 13220 17665
13200 3 13207 13220 17848
13201 1 13220
13202 1 17848
13203 1 17848
13204 13 12792 12795 12796 12876 12877 12878 13194 13197 13198 13213 17822 17825 17838
13205 3 13214 13220 17665
13206 2 13220 17848
13207 2 13200 17848
13208 3 12798 13220 17848
13209 5 13196 17665 17849 17850 17851
13210 2 17665 17848
13211 1 15078
13212 2 12469 15078
13213 5 12876 12877 13197 13204 13282
13214 2 13205 17665
13215 4 12798 13195 17825 17826
13216 2 12325 12449
13217 5 13224 13253 13291 15078 15220
13218 2 12936 15220
13219 3 13224 15210 15220
13220 10 12724 12798 13199 13200 13201 13205 13206 13208 17665 17848
13221 4 12161 15205 15250 15273
13222 4 12218 13239 13253 13347
13223 3 13231 15219 17518
13224 6 13217 13219 15077 15078 15210 15220
13225 1 15076
13226 7 12607 12853 13242 13246 15214 15215 17658
13227 1 13253
13228 7 12739 12775 12838 12966 17693 19594 19595
13229 2 14344 15152
13230 6 11765 11766 17454 17455 17456 17529
13231 5 13223 13253 15207 15219 17518
13232 1 15152
13233 3 13238 13253 13348
13234 2 13330 14344
13235 4 11748 11767 11769 15268
13236 10 11770 11851 11900 12324 12325 12448 12449 13345 15076 15268
13237 6 12218 13251 13288 13289 13347 15076
13238 6 11771 13233 13253 13348 15076 15207
13239 4 13222 13253 13347 15076
13240 1 17309
13241 3 15210 17309 17310
13242 4 13226 15214 17311 17312
13243 4 12604 12921 13266 17657
13244 5 12849 12861 12941 13256 17635
13245 3 15214 17149 17150
13246 3 12607 12853 13226
13247 6 12605 12922 12923 12953 13266 17657
13248 3 12448 13303 15273
13249 3 12324 12448 15273
13250 4 12448 13287 13304 13345
13251 5 12218 13237 13288 13290 13345
13252 4 12918 15211 15212 17308
13253 27 11808 11901 12218 12918 12933 12936 13217 13222 13227 13231 13233 13238 13239 13291 13348 13349 13352 15076 15207 15209 15210 15212 15219 15220 17307 17308 17309
13254 1 15214
13255 7 12789 12812 12870 13256 13279 17821 17837
13256 13 12654 12789 12854 12859 12861 12941 13244 13255 13268 13270 13271 17835 17837
13257 4 12595 12596 12697 17012
13258 4 12538 12596 17014 17256
13259 3 12147 12539 12669
13260 3 12540 13116 17658
13261 5 12600 12687 12708 12712 17657
13262 5 12147 12687 12698 12708 17657
13263 3 12603 13119 17658
13264 2 12603 12949
13265 6 12512 12847 12849 12949 12959 17658
13266 7 12604 12605 12921 12922 13243 13247 17657
13267 4 12148 12699 12923 17657
13268 4 12654 12959 13256 17835
13269 3 12858 12959 17835
13270 5 12787 12854 12859 12861 13256
13271 3 13256 17835 17837
13272 7 12514 12606 12607 12855 12858 12959 17817
13273 4 12785 12788 12861 12960
13274 6 12784 12857 12858 17818 17835 17836
13275 7 12785 12786 12790 12862 12867 12951 12960
13276 2 12790 12871
13277 2 12875 12952
13278 7 12790 12791 12867 12871 12874 12875 12951
13279 12 12787 12788 12789 12859 12861 12864 12865 12869 12870 12872 13255 17821
13280 1 12952
13281 2 12794 12877
13282 4 12798 12876 12877 13213
13283 3 12152 12155 17845
13284 7 12153 12155 12732 12794 12877 12953 17665
13285 4 12021 12153 12877 17665
13286 2 13294 20232
13287 5 12448 12450 13250 13303 13304
13288 4 13237 13251 13345 15076
13289 2 13237 15076
13290 7 12218 12469 12482 13251 13304 13345 13346
13291 4 12218 13217 13253 15078
13292 3 12434 13305 13364
13293 2 12434 13364
13294 10 12397 12434 12657 13188 13286 13313 13363 13365 14382 20232
13295 9 12398 12567 12568 13189 13190 13380 14336 14379 14382
13296 4 12433 12435 13332 14341
13297 4 13380 13381 14379 14382
13298 2 13374 14346
13299 2 13374 14346
13300 2 13374 14346
13301 2 13374 14346
13302 14 12437 12445 12475 12476 12478 12480 13311 13313 13341 13369 13374 13375 13382 14346
13303 5 12448 12450 13248 13287 15273
13304 8 12450 12481 12482 13250 13287 13290 13345 13346
13305 4 12434 13292 13364 20233
13306 2 12434 20233
13307 4 12445 13367 15195 20233
13308 5 12312 12434 13366 15195 20233
13309 2 12479 13367
13310 2 12445 13336
13311 4 12445 12480 13302 13341
13312 4 12323 13341 14345 15252
13313 13 12434 12445 12475 12478 13294 13302 13363 13365 13381 14346 14382 20232 20233
13314 2 12704 17786
13315 2 12705 17787
13316 1 12705
13317 1 12705
13318 3 12697 12705 12711
13319 1 12711
13320 4 12651 12707 12711 12937
13321 5 12651 12652 12707 12938 17627
13322 5 12652 12920 12938 12939 17657
13323 5 12652 12707 12712 12939 17657
13324 1 12401
13325 2 12210 14341
13326 1 14341
13327 2 12209 14341
13328 6 12401 12440 12444 14342 14346 14378
13329 3 12442 13335 15152
13330 4 12442 13234 14344 15152
13331 9 12440 12444 13335 14341 14342 15070 15090 15152 15230
13332 5 12433 13296 14340 14341 14379
13333 7 12314 12315 12436 12439 12479 15196 15197
13334 2 12445 12480
13335 6 12442 12444 13329 13331 14344 15152
13336 4 12317 12445 13310 17118
13337 2 12445 17118
13338 2 12320 12445
13339 1 12320
13340 1 12320
13341 10 12320 12402 12445 12446 13302 13311 13312 14345 14346 16950
13342 1 17064
13343 3 12704 12935 17145
13344 4 12704 12935 17145 17786
13345 8 12448 13236 13250 13251 13288 13290 13304 15076
13346 2 13290 13304
13347 5 12218 13222 13237 13239 15076
13348 4 13233 13238 13253 15207
13349 2 13253 15076
13350 3 12218 12469 15078
13351 3 12446 14343 14346
13352 3 12918 13253 15212
13353 3 12835 12836 15229
13354 2 12836 17105
13355 5 12837 12882 12934 17105 20229
13356 2 12882 17105
13357 4 12882 15190 17105 20230
13358 2 15190 17105
13359 3 12207 12885 15193
13360 3 12771 15193 20230
13361 3 12207 12434 15193
13362 2 12434 15193
13363 2 13294 13313
13364 4 12434 13292 13293 13305
13365 3 13294 13313 14382
13366 2 13308 15195
13367 6 12313 12445 12479 13307 13309 15195
13368 5 12313 12314 12436 12696 15196
13369 4 12445 12476 13302 13382
13370 4 12316 12438 12439 12479
13371 3 12316 12438 12479
13372 2 12445 12479
13373 5 12316 12439 12445 12479 15197
13374 6 13298 13299 13300 13301 13302 14346
13375 2 13302 14346
13376 5 12445 16949 17063 17112 17242
13377 2 12445 17116
13378 2 15071 15258
13379 2 15258 15262
13380 4 13295 13297 14379 14382
13381 5 13297 13313 14346 14379 14382
13382 4 12437 12476 13302 13369
13383 1 15420
13384 1 15424
13385 1 11098
13386 2 11096 15424
13387 1 15426
13388 1 11105
13389 3 11100 11102 15426
13390 1 11105
13391 3 11098 11099 15425
13392 1 11102
13393 2 11102 15427
13394 1 15408
13395 4 11101 11105 11114 15431
13396 2 11114 15429
13397 4 11106 15406 15407 15408
13398 1 15408
13399 1 11114
13400 1 15429
13401 2 11114 15430
13402 1 15429
13403 1 15408
13404 3 11107 15409 15429
13405 1 15408
13406 1 11111
13407 2 11111 15411
13408 3 11109 11114 15430
13409 3 11107 15409 15429
13410 3 11109 15410 15430
13411 1 15433
13412 7 13420 13429 15001 28394 28395 28396 28406
13413 8 13415 13416 13417 13421 13422 13423 13430 13461
13414 7 13419 13437 13438 13455 13456 13458 18789
13415 8 13413 13420 13421 13422 13428 13429 13430 13443
13416 5 13413 13423 13430 13450 13461
13417 5 13413 13424 13430 13434 13444
13418 4 13424 13425 13431 13452
13419 10 13414 13425 13436 13438 13446 13447 13454 18786 18789 18795
13420 3 13412 13415 13429
13421 2 13413 13415
13422 4 13413 13415 13430 13461
13423 3 13413 13416 13430
13424 5 13417 13418 13431 13434 13463
13425 6 13418 13419 13431 13436 13452 13453
13426 3 13441 13457 13458
13427 1 13849
13428 7 13415 13429 13430 13443 13466 13467 13479
13429 7 13412 13415 13420 13428 13479 28394 28408
13430 18 13413 13415 13416 13417 13422 13423 13428 13434 13443 13444 13450 13451 13461 13462 13467 13478 13480 13493
13431 15 13418 13424 13425 13434 13435 13436 13445 13449 13452 13453 13460 13463 13468 13481 13496
13432 5 13438 13447 13454 13468 13482
13433 5 13440 13441 13455 13458 13470
13434 12 13417 13424 13430 13431 13444 13448 13449 13451 13460 13463 13467 13478
13435 2 13431 13445
13436 7 13419 13425 13431 13446 13453 13454 13468
13437 3 13414 13455 13458
13438 8 13414 13419 13432 13447 13455 13470 13482 13501
13439 2 13455 13458
13440 3 13433 13455 13458
13441 5 13426 13433 13457 13458 13470
13442 3 13457 13471 13491
13443 3 13415 13428 13430
13444 5 13417 13430 13434 13448 13451
13445 2 13431 13435
13446 2 13419 13436
13447 4 13419 13432 13438 13454
13448 2 13434 13444
13449 8 13431 13434 13459 13460 13467 13481 13488 13489
13450 3 13416 13430 13461
13451 3 13430 13434 13444
13452 3 13418 13425 13431
13453 3 13425 13431 13436
13454 5 13419 13432 13436 13447 13468
13455 8 13414 13433 13437 13438 13439 13440 13458 13470
13456 4 10454 13414 13458 18789
13457 9 10457 13426 13441 13442 13458 13470 13471 13491 13502
13458 12 10450 10454 13414 13426 13433 13437 13439 13440 13441 13455 13456 13457
13459 1 13449
13460 3 13431 13434 13449
13461 5 13413 13416 13422 13430 13450
13462 1 13430
13463 3 13424 13431 13434
13464 2 28430 28435
13465 4 13727 28430 28435 28458
13466 2 13428 13479
13467 21 13428 13430 13434 13449 13478 13479 13480 13481 13485 13486 13487 13488 13489 13490 13492 13493 13494 13732 13743 13774 28431
13468 13 13431 13432 13436 13454 13481 13482 13484 13490 13494 13495 13496 13497 13744
13469 3 13498 13701 13744
13470 8 13433 13438 13441 13455 13457 13482 13502 13744
13471 11 8841 8998 10457 13442 13457 13491 13499 13500 13502 13744 13745
13472 5 13525 13551 13652 13717 28622
13473 3 13551 13640 28622
13474 11 13477 13506 13512 13522 13524 13532 13599 13634 13651 13739 28629
13475 4 13524 13525 13650 28629
13476 7 13510 13533 13550 13684 13769 13770 13815
13477 8 13474 13506 13511 13522 13532 13533 13543 28629
13478 4 13430 13434 13467 13480
13479 7 13428 13429 13466 13467 28408 28415 28431
13480 4 13430 13467 13478 13493
13481 8 13431 13449 13467 13468 13483 13484 13489 13494
13482 6 13432 13438 13468 13470 13501 13744
13483 2 13481 13494
13484 3 13468 13481 13494
13485 1 13467
13486 2 13467 13493
13487 1 13467
13488 2 13449 13467
13489 3 13449 13467 13481
13490 6 13467 13468 13494 13495 13743 13748
13491 4 10457 13442 13457 13471
13492 3 13467 13732 28431
13493 4 13430 13467 13480 13486
13494 6 13467 13468 13481 13483 13484 13490
13495 6 13468 13490 13700 13744 13747 13748
13496 2 13431 13468
13497 1 13468
13498 2 13469 13744
13499 1 13471
13500 5 13471 13702 13744 13745 13779
13501 2 13438 13482
13502 4 13457 13470 13471 13744
13503 2 9697 13693
13504 28 7706 7762 7767 7768 8901 9056 9650 9651 9703 9704 9707 9708 9709 9710 9728 9729 9873 10580 10581 13674 13676 13692 13696 14779 17893 17894 17895 18777
13505 6 13509 13533 13542 13543 13549 15448
13506 6 13474 13477 13532 13533 13634 13653
13507 3 13528 13533 13548
13508 2 13533 13541
13509 4 13505 13549 15448 15566
13510 2 13476 13533
13511 3 13477 13543 28629
13512 2 13474 13532
13513 1 28421
13514 3 13529 13541 13547
13515 2 13756 13814
13516 2 13541 13547
13517 3 13548 13756 13814
13518 3 13533 13541 13546
13519 2 13542 15448
13520 4 13537 13543 13549 28629
13521 2 13544 13550
13522 3 13474 13477 28629
13523 4 13531 13545 28619 28630
13524 5 13474 13475 13650 13739 28629
13525 7 13472 13475 13592 13650 13652 28622 28629
13526 5 13536 13640 13642 13657 13660
13527 1 13536
13528 3 13507 13533 13548
13529 7 13514 13540 13541 13547 13552 13752 28421
13530 4 13541 13711 13752 13799
13531 4 13523 13539 13545 28630
13532 4 13474 13477 13506 13512
13533 22 13476 13477 13505 13506 13507 13508 13510 13518 13528 13538 13541 13542 13543 13544 13546 13548 13550 13653 13711 13712 13768 13769
13534 2 13636 13653
13535 5 13602 13657 28620 28621 28625
13536 7 13526 13527 13628 13642 13657 28621 28658
13537 6 13520 13545 13549 15566 28629 28698
13538 4 13533 13542 13546 15448
13539 5 13531 13545 15447 28630 28698
13540 1 13529
13541 14 13508 13514 13516 13518 13529 13530 13533 13546 13547 13553 13711 13752 13799 15448
13542 5 13505 13519 13533 13538 15448
13543 7 13477 13505 13511 13520 13533 13549 28629
13544 7 13521 13533 13550 13595 13649 13653 13738
13545 8 13523 13531 13537 13539 15447 28619 28629 28698
13546 5 13518 13533 13538 13541 15448
13547 7 13514 13516 13529 13541 13552 13553 13556
13548 8 13507 13517 13528 13533 13712 13756 13769 13814
13549 6 13505 13509 13520 13537 13543 15566
13550 7 13476 13521 13533 13544 13594 13684 13738
13551 7 13472 13473 13599 13640 13717 13718 28622
13552 6 13529 13547 13554 13556 15565 28421
13553 5 13541 13547 13556 15448 15565
13554 5 13552 13558 15565 15568 28421
13555 3 15567 15568 28488
13556 4 13547 13552 13553 15565
13557 1 15568
13558 4 13554 15568 28421 28422
13559 1 13843
13560 5 13564 13569 13849 13896 13897
13561 11 8412 8685 8686 10290 13893 13898 13926 13928 19362 19378 19387
13562 9 7607 8412 8877 9719 13566 13567 13899 19317 19387
13563 6 10849 11010 13851 13889 13890 19132
13564 10 8685 13560 13569 13570 13847 13848 13849 13888 13889 19130
13565 1 13889
13566 3 8412 13562 19387
13567 4 13562 13899 19317 19387
13568 1 13848
13569 3 13560 13564 13848
13570 2 13564 13848
13571 8 13908 13909 13952 14161 14162 14955 14956 19460
13572 1 13909
13573 1 13909
13574 4 14058 28634 28663 28664
13575 1 28634
13576 12 13577 13578 13580 13585 13586 13587 13589 13590 14059 28637 28642 28667
13577 5 13576 13585 13589 14059 28665
13578 5 13576 14059 14264 28665 28667
13579 1 28667
13580 8 13576 13582 13588 28637 28638 28643 28667 28673
13581 2 14085 14301
13582 3 13580 13588 28637
13583 2 28661 28668
13584 3 14275 28661 28668
13585 11 13576 13577 13586 13587 13589 28639 28640 28641 28644 28665 28669
13586 3 13576 13585 13589
13587 4 13576 13585 13590 28639
13588 4 13580 13582 28637 28638
13589 4 13576 13577 13585 13586
13590 4 13576 13587 28639 28642
13591 1 28639
13592 4 13525 13635 13650 13652
13593 2 13628 13641
13594 2 13550 13684
13595 5 13544 13649 13653 13686 13802
13596 1 13650
13597 1 13734
13598 2 13734 13790
13599 9 13474 13551 13635 13651 13653 13717 13718 13739 13740
13600 4 13636 13637 13653 13734
13601 1 13658
13602 4 13535 13640 13657 28625
13603 4 13640 13641 13656 13660
13604 4 13628 13641 13644 13656
13605 3 13622 13628 13644
13606 1 13628
13607 3 13664 13721 28624
13608 1 28655
13609 5 13645 13646 13664 13708 28655
13610 2 13648 28658
13611 1 13648
13612 2 13647 13666
13613 1 13648
13614 1 28655
13615 2 13648 28655
13616 2 14295 28655
13617 1 28655
13618 7 13637 13653 13658 13690 13718 13734 13791
13619 2 13628 13644
13620 3 13644 13661 13793
13621 4 13631 13632 13644 13666
13622 5 13605 13628 13632 13644 13808
13623 4 13638 13655 13687 14151
13624 2 13638 14151
13625 1 13690
13626 4 13639 13690 14152 14487
13627 3 13719 14363 14493
13628 14 13536 13593 13604 13605 13606 13619 13622 13641 13642 13644 13660 13765 13808 28658
13629 9 13643 13661 13666 13690 13719 13737 13763 13793 14155
13630 5 13644 13661 13662 13666 13737
13631 3 13621 13644 13666
13632 6 13621 13622 13644 13666 13808 28658
13633 13 13647 13648 13663 13665 13666 13691 13709 13722 13723 13821 14372 14493 28655
13634 5 13474 13506 13651 13653 13740
13635 6 13592 13599 13650 13652 13717 13739
13636 5 13534 13600 13653 13734 13802
13637 4 13600 13618 13653 13734
13638 4 13623 13624 13687 14151
13639 2 13626 13690
13640 13 13473 13526 13551 13602 13603 13654 13656 13657 13659 13660 13718 28622 28625
13641 6 13593 13603 13604 13628 13656 13660
13642 4 13526 13536 13628 13660
13643 3 13629 13661 13737
13644 17 13604 13605 13619 13620 13621 13622 13628 13630 13631 13632 13656 13658 13661 13662 13666 13718 13793
13645 5 13609 13664 13708 28655 28658
13646 5 13609 13664 13721 28624 28655
13647 3 13612 13633 13666
13648 9 13610 13611 13613 13615 13633 13666 13667 28655 28658
13649 4 13544 13595 13686 13738
13650 7 13475 13524 13525 13592 13596 13635 13739
13651 4 13474 13599 13634 13740
13652 5 13472 13525 13592 13635 13717
13653 14 13506 13533 13534 13544 13595 13599 13600 13618 13634 13636 13637 13718 13740 13802
13654 2 13640 13718
13655 10 13623 13683 13684 13686 13738 13770 13790 13802 14151 28451
13656 6 13603 13604 13640 13641 13644 13718
13657 6 13526 13535 13536 13602 13640 28621
13658 7 13601 13618 13644 13690 13718 13791 13793
13659 1 13640
13660 6 13526 13603 13628 13640 13641 13642
13661 7 13620 13629 13630 13643 13644 13737 13793
13662 2 13630 13644
13663 2 13633 13722
13664 9 13607 13609 13645 13646 13708 13721 13766 28624 28658
13665 3 13633 13709 13722
13666 15 13612 13621 13629 13630 13631 13632 13633 13644 13647 13648 13719 13737 14155 14372 28658
13667 1 13648
13668 4 9697 13694 13695 14104
13669 6 9697 13693 13694 14122 14131 14132
13670 2 13673 14108
13671 4 13724 13725 28416 28457
13672 3 13724 28416 28435
13673 7 8885 13670 13680 13839 13884 14108 14124
13674 4 13504 13676 13838 17895
13675 2 14275 28661
13676 6 13504 13674 13696 13838 14051 14086
13677 1 13684
13678 8 13710 13720 13794 13807 13810 13819 14430 14481
13679 4 13811 13822 13823 14494
13680 5 8885 13673 13695 14108 14121
13681 5 13754 13755 13785 13813 13826
13682 4 13769 13813 13814 13826
13683 6 13655 13769 13770 13788 13815 28451
13684 7 13476 13550 13594 13655 13677 13738 13770
13685 6 13789 13816 13818 14269 14283 28451
13686 5 13595 13649 13655 13738 13802
13687 2 13623 13638
13688 5 13735 13789 13792 13805 13818
13689 1 13817
13690 10 13618 13625 13626 13629 13639 13658 13761 13763 13791 13793
13691 3 13633 13821 28655
13692 7 8902 9057 9729 9731 13504 14189 14750
13693 7 9697 13503 13669 13697 14122 14132 14189
13694 4 9697 13668 13669 14131
13695 9 8885 9697 13668 13680 14104 14121 14225 14226 17870
13696 5 13504 13676 14086 14189 14253
13697 3 13693 14122 14189
13698 7 13742 13743 13775 14384 14407 14419 14420
13699 1 13775
13700 7 13495 13743 13744 13746 13747 13748 13775
13701 3 13469 13744 13778
13702 3 13500 13745 13779
13703 4 13744 13749 13750 13779
13704 1 13779
13705 3 13745 13772 13779
13706 1 13779
13707 1 13779
13708 3 13609 13645 13664
13709 4 13633 13665 13722 28655
13710 7 13678 13720 13741 13794 14361 14370 14461
13711 5 13530 13533 13541 13768 13799
13712 11 13533 13548 13753 13756 13768 13786 13800 13812 13814 14365 28461
13713 1 28451
13714 7 13755 13783 13785 13787 13788 14365 28451
13715 3 13735 13789 28451
13716 4 13735 14424 14453 28450
13717 5 13472 13551 13599 13635 13652
13718 9 13551 13599 13618 13640 13644 13653 13654 13656 13658
13719 6 13627 13629 13666 14296 14372 14493
13720 6 13678 13710 13741 13810 13820 14462
13721 4 13607 13646 13664 28624
13722 5 13633 13663 13665 13709 28655
13723 2 13633 28655
13724 6 13671 13672 13725 28416 28435 28458
13725 5 13671 13724 28436 28457 28458
13726 2 13828 28430
13727 5 13465 13728 28430 28435 28458
13728 6 13727 13849 13883 14405 28430 28458
13729 1 28430
13730 3 13731 13733 28438
13731 9 13730 13733 13773 14383 14417 15323 28431 28438 28464
13732 4 13467 13492 13782 28431
13733 4 13730 13731 28431 28438
13734 8 13597 13598 13600 13618 13636 13637 13790 13802
13735 19 13688 13715 13716 13758 13759 13760 13789 13801 13803 13805 14437 14453 14471 14474 14477 28432 28450 28451 28468
13736 5 13794 13797 13819 14437 14472
13737 5 13629 13630 13643 13661 13666
13738 6 13544 13550 13649 13655 13684 13686
13739 5 13474 13524 13599 13635 13650
13740 4 13599 13634 13651 13653
13741 5 13710 13720 14392 14461 14462
13742 2 13698 14407
13743 9 13467 13490 13698 13700 13746 13748 13775 14406 28431
13744 20 13468 13469 13470 13471 13482 13495 13498 13500 13502 13700 13701 13703 13749 13775 13777 13778 13779 14408 14411 14412
13745 11 7716 8998 13471 13500 13702 13705 13772 13779 14098 14129 14413
13746 2 13700 13743
13747 3 13495 13700 13748
13748 5 13490 13495 13700 13743 13747
13749 3 13703 13744 13779
13750 2 13703 13779
13751 3 13783 14365 28451
13752 7 13529 13530 13541 13799 28421 28445 28449
13753 2 13712 13786
13754 4 13681 13785 13800 13826
13755 5 13681 13714 13785 13788 13813
13756 5 13515 13517 13548 13712 13814
13757 2 13787 28451
13758 2 13735 14477
13759 2 13735 14477
13760 2 13735 14437
13761 2 13690 13791
13762 5 13806 13817 13818 14269 14285
13763 3 13629 13690 13793
13764 1 28658
13765 2 13628 28658
13766 1 13664
13767 3 13780 28441 28443
13768 8 13533 13711 13712 13799 28446 28448 28449 28461
13769 9 13476 13533 13548 13682 13683 13788 13813 13814 13815
13770 5 13476 13655 13683 13684 13815
13771 1 28658
13772 2 13705 13745
13773 3 13731 14417 28431
13774 2 13467 28431
13775 8 13698 13699 13700 13743 13744 14408 14420 14434
13776 1 14409
13777 1 13744
13778 10 13701 13744 14110 14408 14409 14410 14411 14422 14423 14435
13779 14 13500 13702 13703 13704 13705 13706 13707 13744 13745 13749 13750 14098 14129 14412
13780 3 13767 28441 28443
13781 6 14852 14854 14856 14860 14862 15438
13782 2 13732 28431
13783 4 13714 13751 14365 28451
13784 3 14149 28451 28460
13785 6 13681 13714 13754 13755 13800 14365
13786 3 13712 13753 13800
13787 3 13714 13757 28451
13788 6 13683 13714 13755 13769 13813 28451
13789 6 13685 13688 13715 13735 13818 28451
13790 4 13598 13655 13734 13802
13791 4 13618 13658 13690 13761
13792 6 13688 13805 13818 14371 14457 14472
13793 7 13620 13629 13644 13658 13661 13690 13763
13794 8 13678 13710 13736 13797 13803 13819 14361 14453
13795 2 13821 14493
13796 6 13810 13820 14393 14429 14465 14480
13797 4 13736 13794 13803 14437
13798 2 28444 28451
13799 6 13530 13541 13711 13752 13768 28449
13800 6 13712 13754 13785 13786 13826 14365
13801 5 13735 14385 14471 28450 28469
13802 7 13595 13636 13653 13655 13686 13734 13790
13803 6 13735 13794 13797 14437 14453 14477
13804 3 13817 14153 14291
13805 5 13688 13735 13792 14437 14472
13806 6 13762 13817 13818 14368 14440 14478
13807 4 13678 13819 14472 14481
13808 4 13622 13628 13632 28658
13809 2 13822 14492
13810 8 13678 13720 13796 13820 14430 14438 14465 14483
13811 7 13679 13822 13823 14286 14289 14292 14294
13812 3 13712 14365 28461
13813 6 13681 13682 13755 13769 13788 13826
13814 7 13515 13517 13548 13682 13712 13756 13769
13815 4 13476 13683 13769 13770
13816 2 13685 14283
13817 7 13689 13762 13804 13806 14153 14368 14490
13818 11 13685 13688 13762 13789 13792 13806 14269 14371 14458 14478 14488
13819 5 13678 13736 13794 13807 14472
13820 5 13720 13796 13810 14462 14480
13821 5 13633 13691 13795 14493 28655
13822 8 13679 13809 13811 14286 14297 14460 14492 14494
13823 6 13679 13811 14294 14298 14494 28655
13824 2 28448 28461
13825 1 28448
13826 5 13681 13682 13754 13800 13813
13827 3 14403 28430 28455
13828 4 13726 13837 14403 28430
13829 4 13835 17048 28455 28497
13830 3 13837 14403 15300
13831 3 13837 15300 17051
13832 6 13834 13837 14404 15301 17051 28430
13833 4 14404 15301 17051 28430
13834 3 13832 13837 28430
13835 5 13829 14403 15300 17048 28455
13836 4 28416 28429 28456 28466
13837 8 13828 13830 13831 13832 13834 14403 15300 28430
13838 9 7625 13674 13676 14086 14223 17895 18733 18735 18737
13839 22 7620 7621 7622 7623 7624 7626 7631 8529 8885 10373 10374 10376 13673 13884 14190 18617 18738 18839 18841 18898 18900 20211
13840 2 10934 28428
13841 2 10935 19063
13842 7 10935 10936 10937 19064 19073 19321 28428
13843 3 13559 19323 28428
13844 1 13989
13845 9 11007 13887 13987 13988 13989 19069 19322 19325 28428
13846 1 28428
13847 2 13564 13888
13848 16 11059 11075 13564 13568 13569 13570 13885 13886 13887 13888 13991 13992 19127 19130 19326 19342
13849 12 8683 8685 13427 13560 13564 13728 13883 13895 13897 18069 28428 28458
13850 2 11076 13923
13851 5 13563 13889 13890 13926 14015
13852 17 11054 11074 11161 11162 11163 11164 13892 13921 13923 13924 14014 14016 19109 19112 19113 19357 19360
13853 2 15956 19366
13854 3 13955 14019 14045
13855 1 19383
13856 4 13893 13927 14018 19387
13857 8 13954 13960 14019 15885 15887 19372 19373 19383
13858 2 13961 19388
13859 4 13892 13961 14023 19390
13860 26 13892 13953 13958 13961 15889 15956 15958 15959 15960 15961 15962 15963 15964 19358 19363 19364 19365 19366 19374 19375 19376 19377 19379 19380 19388 19389
13861 2 14023 19392
13862 11 13899 13911 13929 13964 13965 14020 14022 14885 19387 19391 19396
13863 7 13911 13929 13930 13931 14022 19396 19398
13864 4 13899 13969 19398 19400
13865 5 13899 13971 13976 19214 19400
13866 7 13914 13933 15891 15966 18988 19404 19405
13867 1 13940
13868 52 13916 13917 13918 13920 13932 13933 13934 13935 13936 13937 13938 13939 13940 13941 13980 13983 13985 14003 14010 14023 14028 14036 14037 14040 15890 15892 15893 15894 15895 15896 15897 15898 15899 15913 15915 18986 18987 18989 19393 19397 19399 19408 19409 19410 19411 19412 19413 19414 19415 19417 19419 19422
13869 7 7637 13949 14005 14901 18742 18815 19430
13870 4 14007 14900 19037 19436
13871 5 13985 14008 14010 14043 19428
13872 3 14007 14902 19037
13873 2 14901 19310
13874 20 7601 13901 13948 14006 14007 14009 14902 15667 17886 17887 18544 18597 18703 18705 18815 18816 18894 18895 18897 19436
13875 2 14010 14043
13876 4 15908 19038 19432 19443
13877 3 10924 14043 19044
13878 6 14010 14043 19040 19441 19442 19444
13879 9 14008 14041 14042 14043 14047 19042 19445 19446 19447
13880 1 14043
13881 11 10924 10928 14043 14048 19043 19044 19045 19046 19457 19458 19459
13882 6 11004 11359 11439 13952 14161 14917
13883 4 13728 13849 14405 18069
13884 6 13673 13839 14107 14124 14134 14190
13885 2 13848 19326
13886 1 13848
13887 6 13845 13848 13989 13990 13991 19325
13888 3 13564 13847 13848
13889 6 8685 13563 13564 13565 13851 13926
13890 5 10849 11010 13563 13851 14015
13891 3 13898 13925 13926
13892 9 13852 13859 13860 13961 14016 14023 19360 19361 19363
13893 5 13561 13856 13898 13927 19387
13894 1 14041
13895 2 13849 28428
13896 1 13560
13897 2 13560 13849
13898 5 13561 13891 13893 13926 13928
13899 18 7607 13562 13567 13862 13864 13865 13911 13942 13943 13944 13945 13946 13976 19317 19387 19391 19398 19400
13900 3 18815 18832 18895
13901 6 13874 13948 14006 19032 19035 19436
13902 2 14907 19311
13903 1 14907
13904 1 18745
13905 1 10442
13906 1 18745
13907 2 10442 18745
13908 7 11251 13571 14162 14919 14922 14956 19460
13909 28 11252 11253 11262 11263 11265 11266 11325 13571 13572 13573 14074 14163 14164 14165 14167 14168 14169 14922 14925 14926 14927 14958 14959 14961 14996 19460 19461 19462
13910 1 14074
13911 8 13862 13863 13899 13929 13944 13945 19391 19398
13912 3 11005 19320 28428
13913 2 14028 19403
13914 3 13866 13933 18988
13915 1 14029
13916 4 13868 13980 14029 14036
13917 1 13868
13918 2 13868 13937
13919 2 14003 19416
13920 4 13868 14002 19417 19419
13921 4 11074 13852 19343 19344
13922 1 11076
13923 5 11076 13850 13852 19348 19349
13924 4 11076 13852 15953 19357
13925 1 13891
13926 6 8685 13561 13851 13889 13891 13898
13927 2 13856 13893
13928 2 13561 13898
13929 4 13862 13863 13911 19396
13930 2 13863 19396
13931 2 13863 19398
13932 2 13868 19399
13933 9 13866 13868 13914 15914 15915 15966 18988 18989 19404
13934 4 13868 15892 15915 15916
13935 2 13868 15893
13936 1 13868
13937 2 13868 13918
13938 1 13868
13939 1 13868
13940 4 13867 13868 15899 15967
13941 3 13868 14010 15968
13942 2 13899 19391
13943 2 13899 19391
13944 3 13899 13911 19391
13945 3 13899 13911 19398
13946 1 13899
13947 1 18815
13948 3 13874 13901 18815
13949 5 13869 18815 19030 19031 19430
13950 4 14901 19310 19430 19433
13951 2 7988 18745
13952 3 13571 13882 14161
13953 3 13860 15956 19375
13954 5 13857 13960 15957 15958 19373
13955 3 13854 14019 14045
13956 1 14019
13957 3 14019 14046 15888
13958 5 13860 15959 19380 19382 19383
13959 1 15958
13960 5 13857 13954 15958 19367 19372
13961 5 13858 13859 13860 13892 19388
13962 1 14885
13963 1 14885
13964 2 13862 14885
13965 7 11016 11019 13862 14022 14884 14885 14886
13966 5 10876 10966 11017 19192 19193
13967 3 10878 11018 14021
13968 2 11020 14028
13969 6 10973 13864 14898 19203 19398 19400
13970 1 14028
13971 5 13865 14893 19208 19214 19400
13972 3 14024 14025 14028
13973 1 14028
13974 1 14028
13975 1 14028
13976 9 7607 7632 13865 13899 14891 14892 14894 19214 19220
13977 1 14028
13978 2 14028 14031
13979 1 14028
13980 4 13868 13916 14028 14029
13981 4 14027 14030 14033 14036
13982 4 10895 14032 14034 14036
13983 3 13868 14036 19408
13984 6 10895 10898 13996 14035 14036 19249
13985 6 13868 13871 14010 19033 19422 19428
13986 1 19078
13987 1 13845
13988 3 11007 13845 19331
13989 4 13844 13845 13887 19333
13990 9 13887 19327 19328 19329 19330 19332 19335 19338 19340
13991 6 11070 13848 13887 19339 19341 19342
13992 7 10841 11056 11057 11073 13848 19127 19342
13993 14 11058 11071 11158 14011 14012 14013 18950 18955 19002 19345 19346 19347 19350 19353
13994 8 10945 14023 18971 18974 19015 19351 19356 19359
13995 4 14023 18975 19020 19359
13996 7 10898 10979 13984 14035 19251 19252 19254
13997 4 10899 10981 19256 19260
13998 5 10900 10901 10903 10906 19261
13999 5 10905 10985 10986 19263 19266
14000 6 10911 10987 10991 19264 19265 19267
14001 9 10904 10907 10909 10910 10989 10991 15849 19271 19274
14002 2 13920 19419
14003 10 10915 10995 11031 13868 13919 14039 14040 19415 19418 19420
14004 1 19436
14005 3 13869 14899 19430
14006 3 13874 13901 19436
14007 6 13870 13872 13874 14902 19037 19436
14008 6 13871 13879 14041 14043 19421 19428
14009 4 13874 14902 14907 18597
14010 18 13868 13871 13875 13878 13941 13985 14043 15906 15968 19039 19424 19425 19426 19427 19429 19431 19440 19442
14011 5 13993 18955 18957 18959 19005
14012 12 10943 13993 18958 18960 18961 18962 18964 18969 18970 19011 19347 19352
14013 5 11058 11063 13993 19353 19354
14014 6 11058 11060 11062 11164 13852 19355
14015 4 11010 13851 13890 19142
14016 2 13852 13892
14017 2 11012 19154
14018 11 10862 11009 11012 11013 13856 19018 19146 19162 19171 19381 19387
14019 11 13854 13857 13955 13956 13957 14045 14046 15884 15888 15958 19372
14020 10 10863 10864 13862 14885 19023 19172 19178 19179 19180 19387
14021 1 13967
14022 12 10969 11019 11021 13862 13863 13965 14887 14888 19200 19203 19396 19398
14023 41 10871 10874 10877 10879 10956 10958 10960 10962 10963 10964 10971 13859 13861 13868 13892 13994 13995 15981 18975 18976 18977 18978 18979 18980 18981 18982 18984 19020 19356 19359 19368 19369 19370 19371 19384 19385 19386 19390 19392 19393 19394
14024 3 10883 11023 13972
14025 1 13972
14026 1 11026
14027 1 13981
14028 30 10881 10944 10972 11015 11017 11018 11020 11024 13868 13913 13968 13970 13972 13973 13974 13975 13977 13978 13979 13980 18972 18983 18985 19017 19021 19022 19395 19401 19402 19403
14029 3 13915 13916 13980
14030 1 13981
14031 4 11025 11026 13978 19245
14032 1 13982
14033 4 10976 10978 13981 19243
14034 1 13982
14035 3 10979 13984 13996
14036 12 10895 13868 13916 13981 13982 13983 13984 19249 19255 19406 19407 19408
14037 8 10906 10982 10984 10989 13868 19258 19262 19408
14038 1 11029
14039 2 10995 14003
14040 14 10917 10994 10999 11029 11031 13868 14003 15858 19269 19270 19272 19275 19280 19282
14041 16 10919 10920 10921 10922 10923 10926 10996 11000 13879 13894 14008 14903 14904 14950 19445 19451
14042 6 11001 13879 14047 19446 19450 19456
14043 13 10924 13871 13875 13877 13878 13879 13880 13881 14008 14010 19041 19044 19447
14044 6 10933 11002 11003 11004 14048 14952
14045 3 13854 13955 14019
14046 2 13957 14019
14047 2 13879 14042
14048 2 13881 14044
14049 4 14066 14084 14086 14254
14050 3 14066 14086 14254
14051 2 13676 14086
14052 2 14084 14254
14053 4 14068 14208 14238 16745
14054 3 14071 14993 15909
14055 3 11264 14072 14998
14056 5 14071 14072 14993 15909 15910
14057 3 14073 14926 15910
14058 4 13574 28578 28663 28664
14059 4 13576 13577 13578 28665
14060 2 14267 28667
14061 2 14181 28667
14062 1 28667
14063 4 14080 14081 14182 14184
14064 3 14180 14184 28667
14065 4 14083 14184 14251 28667
14066 4 14049 14050 14086 14254
14067 4 14086 14218 14223 14255
14068 14 11178 11201 11202 11562 11563 11643 11645 14053 14086 14204 14218 14233 14238 16745
14069 3 11553 11566 16745
14070 10 11202 11204 11552 11553 11566 11645 16628 16667 16744 16745
14071 4 14054 14056 14993 15909
14072 7 11264 14055 14056 14993 14998 14999 15910
14073 6 11264 14057 14926 14999 15910 15969
14074 6 13909 13910 14932 14960 14962 14963
14075 7 14927 14929 14930 14931 14932 15911 15912
14076 1 14179
14077 4 14178 14179 14248 19488
14078 3 14181 19487 19490
14079 2 14181 19490
14080 5 14063 14182 14184 19489 19491
14081 4 14063 14182 14184 14942
14082 7 11327 14182 14941 16045 16342 16344 19494
14083 2 14065 14251
14084 19 11165 11271 11273 14049 14052 14086 14092 14112 14114 14145 14189 14231 14236 14254 14256 16628 16777 16810 16818
14085 10 11528 11538 11546 13581 14089 14090 14275 14301 19466 28681
14086 17 7625 11561 13676 13696 13838 14049 14050 14051 14066 14067 14068 14084 14218 14223 14233 14253 14254
14087 2 11487 14299
14088 1 19521
14089 6 11546 14085 14275 19511 19520 19521
14090 7 11532 11534 11538 14085 19464 19465 19473
14091 2 14108 14124
14092 4 14084 14112 16810 16818
14093 1 11444
14094 2 14145 14261
14095 3 14127 16700 16721
14096 3 14127 14138 14145
14097 6 14110 14411 14423 15280 15322 15362
14098 6 13745 13779 14111 14129 14412 14413
14099 3 14102 14145 14245
14100 2 14145 14263
14101 2 28674 28689
14102 5 11378 14099 14145 14147 14245
14103 2 15014 15026
14104 3 13668 13695 14226
14105 3 14112 14123 16818
14106 3 11373 11646 14133
14107 3 13884 14124 14134
14108 13 13670 13673 13680 14091 14113 14115 14121 14122 14124 14133 14229 14230 14232
14109 5 11449 14115 14117 14124 14234
14110 5 13778 14097 14410 14411 14423
14111 8 11850 11939 14098 14412 14413 15281 15282 15365
14112 5 14084 14092 14105 14123 16818
14113 2 14108 14122
14114 4 14084 14231 16810 16817
14115 8 11366 11477 11644 14108 14109 14124 14133 14234
14116 5 11375 11443 11653 14127 14242
14117 4 11449 14109 14124 14241
14118 7 11375 11377 11653 14127 14145 14245 14260
14119 2 11390 15037
14120 4 11666 14984 15035 15036
14121 6 13680 13695 14108 14227 14228 14229
14122 10 13669 13693 13697 14108 14113 14131 14132 14189 14230 14232
14123 3 14105 14112 16818
14124 12 13673 13884 14091 14107 14108 14109 14115 14117 14134 14234 14235 14241
14125 6 11404 11449 11450 11477 11647 11648
14126 9 11379 11649 11654 11655 14190 14244 16811 16813 16814
14127 32 11366 11368 11375 11387 11404 11443 11450 11461 11462 11646 11661 11666 14095 14096 14116 14118 14138 14145 14260 14262 14263 14980 14981 15004 15006 15007 15013 15030 16700 16704 16705 16723
14128 2 15007 15013
14129 3 13745 13779 14098
14130 4 14943 14946 28667 28689
14131 4 13669 13694 14122 14230
14132 3 13669 13693 14122
14133 10 11342 11366 11373 11646 14106 14108 14115 14189 14231 14232
14134 5 13884 14107 14124 14190 14235
14135 2 14190 14244
14136 2 14190 14244
14137 4 11380 11444 11445 14190
14138 2 14096 14127
14139 5 11382 11383 15005 15027 15028
14140 1 11390
14141 4 11384 11663 15005 15026
14142 6 11355 11663 11666 15005 15008 15029
14143 1 15026
14144 2 11388 15026
14145 43 11273 11283 11307 11347 11353 11362 11378 11381 11383 11384 11386 11390 11442 11558 11574 11578 11581 11628 11635 11646 11666 11667 11675 11725 14084 14094 14096 14099 14100 14102 14118 14127 14147 14242 14245 14260 14261 14263 15005 15026 15027 15033 16818
14146 7 11663 15008 15017 15031 15032 15041 15042
14147 2 14102 14145
14148 5 12029 12164 12383 12384 14198
14149 3 13784 28451 28460
14150 3 14276 14283 28451
14151 9 13623 13624 13638 13655 14276 14279 14283 14284 28451
14152 2 13626 14487
14153 5 13804 13817 14280 14291 14490
14154 1 14493
14155 2 13629 13666
14156 7 14270 14286 14289 14292 14375 14468 14473
14157 3 14176 14270 14281
14158 3 11483 14271 14272
14159 10 11508 11510 11511 11513 11514 11515 11731 11733 14290 14377
14160 2 14918 14955
14161 8 13571 13882 13952 14917 14918 14954 14955 15809
14162 6 13571 13908 14918 14919 14955 14956
14163 4 11252 13909 14922 19460
14164 6 11253 11256 13909 14958 14991 14992
14165 2 13909 14958
14166 1 14958
14167 4 11259 13909 14958 14996
14168 7 11261 11264 13909 14923 14926 14995 14996
14169 3 11325 13909 14959
14170 5 11321 14265 14266 14267 28667
14171 2 14179 28667
14172 1 14179
14173 3 11396 11676 14197
14174 3 11398 11677 14197
14175 19 8324 8330 8331 8332 10489 10504 10509 10510 10511 10512 10513 10515 11460 11489 11684 14197 14198 18847 18913
14176 9 14157 14270 14277 14281 14287 14288 14293 14376 14433
14177 1 11321
14178 2 14077 19488
14179 22 8732 8771 10766 10791 10792 10814 11320 11328 14076 14077 14171 14172 14246 14247 14248 14267 14268 19485 19486 19487 19488 28667
14180 1 14064
14181 6 14061 14078 14079 19487 19490 28667
14182 15 14063 14080 14081 14082 14191 14249 14250 14942 16344 16345 19491 19492 19494 19530 19533
14183 2 16348 19533
14184 11 14063 14064 14065 14080 14081 14192 14251 14942 16348 19489 28667
14185 5 16347 16349 19531 19532 19534
14186 4 14196 14251 14944 28667
14187 1 14196
14188 2 14196 14948
14189 13 8902 9697 13692 13693 13696 13697 14084 14122 14133 14231 14232 14750 18605
14190 22 8306 10398 10487 11380 11444 11445 11452 11655 13839 13884 14126 14134 14135 14136 14137 14244 18638 18641 18821 18841 18847 18854
14191 3 14182 14942 19533
14192 2 14184 14251
14193 2 11521 16347
14194 1 16348
14195 2 11521 16349
14196 23 14186 14187 14188 14251 14252 14913 14914 14944 14945 14947 14948 16057 16058 16059 16348 16350 16354 16355 16464 16466 16467 28689 28706
14197 11 11394 11396 11398 11452 11460 11676 11677 14173 14174 14175 18913
14198 16 11401 11460 11479 11488 11491 11492 11493 11495 11502 11680 11681 11684 12383 12384 14148 14175
14199 8 8361 10538 11863 11864 11912 12458 13001 18874
14200 3 11267 14218 14259
14201 3 14210 14218 16753
14202 8 14218 14219 14220 14224 14240 16754 16759 16761
14203 2 14223 14237
14204 4 14068 14218 14222 14238
14205 3 14218 14223 14255
14206 4 11203 14215 14221 14239
14207 4 14216 14238 16636 16745
14208 4 14053 14216 14238 16745
14209 1 14240
14210 9 11207 14201 14218 14238 14240 16636 16747 16753 16761
14211 2 14219 14243
14212 10 11218 14218 14219 14220 14224 14243 16643 16778 16779 16800
14213 2 14223 18736
14214 3 8760 8796 14223
14215 9 8021 8069 10151 11203 14206 14221 14223 14239 18635
14216 4 14207 14208 14238 16745
14217 7 14221 14223 14237 14239 14258 16763 16802
14218 29 11213 11267 14067 14068 14086 14200 14201 14202 14204 14205 14210 14212 14220 14222 14223 14237 14238 14255 14257 14258 14259 16630 16643 16669 16753 16761 16762 16768 16780
14219 10 11170 11212 11694 14202 14211 14212 14224 14240 14243 16636
14220 4 14202 14212 14218 14224
14221 5 14206 14215 14217 14223 14239
14222 2 14204 14218
14223 27 7625 8760 8796 9873 10151 13838 14067 14086 14203 14205 14213 14214 14215 14217 14218 14221 14237 14255 16399 16491 16492 16493 16499 16543 17895 18736 18737
14224 4 14202 14212 14219 14220
14225 1 13695
14226 2 13695 14104
14227 1 14121
14228 1 14121
14229 2 14108 14121
14230 3 14108 14122 14131
14231 6 11646 14084 14114 14133 14189 18605
14232 4 14108 14122 14133 14189
14233 5 11202 11561 14068 14086 16628
14234 3 14109 14115 14124
14235 2 14124 14134
14236 5 11165 11191 11273 11693 14084
14237 5 14203 14217 14218 14223 14258
14238 9 14053 14068 14204 14207 14208 14210 14216 14218 16636
14239 9 11203 11206 11691 14206 14215 14217 14221 16767 16802
14240 9 14202 14209 14210 14219 16636 16747 16754 16759 16761
14241 4 11449 11650 14117 14124
14242 8 11347 11365 11376 11443 11646 11653 14116 14145
14243 6 11170 11218 11695 14211 14212 14219
14244 5 11649 14126 14135 14136 14190
14245 7 11377 11378 11653 14099 14102 14118 14145
14246 1 14179
14247 1 14179
14248 2 14077 14179
14249 1 14182
14250 2 14182 19530
14251 8 14065 14083 14184 14186 14192 14196 16348 28667
14252 1 14196
14253 2 13696 14086
14254 8 11561 14049 14050 14052 14066 14084 14086 16628
14255 4 14067 14205 14218 14223
14256 4 11165 11191 14084 16777
14257 1 14218
14258 3 14217 14218 14237
14259 3 11267 14200 14218
14260 3 14118 14127 14145
14261 2 14094 14145
14262 1 14127
14263 4 11666 14100 14127 14145
14264 4 11321 13578 28665 28667
14265 2 11321 14170
14266 1 14170
14267 4 14060 14170 14179 28667
14268 1 14179
14269 5 13685 13762 13818 14283 14285
14270 9 14156 14157 14176 14287 14289 14292 14468 14473 14497
14271 9 11483 11486 11487 14158 14289 14298 14299 19554 28655
14272 3 11483 14158 19549
14273 6 11515 14282 14290 14377 19550 19555
14274 1 14301
14275 7 13584 13675 14085 14089 14301 28661 28668
14276 4 14150 14151 14283 28451
14277 5 14176 14287 14293 14376 14467
14278 1 14291
14279 1 14151
14280 2 14153 14291
14281 2 14157 14176
14282 1 14273
14283 7 13685 13816 14150 14151 14269 14276 28451
14284 1 14151
14285 2 13762 14269
14286 6 13811 13822 14156 14292 14297 14375
14287 7 14176 14270 14277 14293 14467 14486 14497
14288 1 14176
14289 7 13811 14156 14270 14271 14292 14294 14298
14290 4 11515 14159 14273 14377
14291 4 13804 14153 14278 14280
14292 5 13811 14156 14270 14286 14289
14293 3 14176 14277 14287
14294 4 13811 13823 14289 14298
14295 5 13616 14299 28636 28655 28668
14296 1 13719
14297 4 13822 14286 14375 14492
14298 5 13823 14271 14289 14294 28655
14299 5 11487 14087 14271 14295 28655
14300 1 28681
14301 6 13581 14085 14274 14275 28661 28681
14302 3 12328 12973 13057
14303 4 13186 14329 14332 14349
14304 3 12530 12563 14334
14305 1 14334
14306 5 13188 14307 14332 14349 14352
14307 10 12434 12614 12657 13184 13188 14306 14330 14333 14349 14350
14308 3 12210 12400 14341
14309 4 11960 12747 13108 17280
14310 3 11960 13057 17280
14311 5 12224 12230 12451 14317 14319
14312 2 13058 17280
14313 6 11962 12525 12611 12612 13186 14329
14314 5 12453 13184 13185 14333 19577
14315 3 12528 12565 13186
14316 3 12137 15253 15267
14317 7 12224 12519 12520 12622 14311 14319 14348
14318 5 11938 15339 15347 19602 19604
14319 5 12230 12622 13186 14311 14317
14320 3 12523 12609 13058
14321 5 12609 13058 13107 15092 15153
14322 5 12228 12231 12562 12626 13186
14323 1 12588
14324 5 15131 15153 15154 17176 17282
14325 1 15154
14326 4 11779 11904 11978 13184
14327 2 15131 15154
14328 2 15093 15154
14329 9 11902 11962 11978 12612 13184 13186 14303 14313 14349
14330 3 13184 14307 14350
14331 3 15093 15131 15154
14332 6 12407 13186 14303 14306 14349 14352
14333 7 12434 12477 13184 13185 14307 14314 14350
14334 17 12160 12491 12523 12527 12530 12563 12565 12588 12609 12630 14304 14305 14339 14351 15131 15153 17281
14335 6 12382 12629 13188 13190 14352 14353
14336 5 12382 12398 13295 14353 14382
14337 9 12160 12208 12236 12399 12491 12568 12630 14340 14379
14338 4 12235 12408 13191 14341
14339 5 12022 12160 12433 14334 15131
14340 6 12022 12160 12433 13332 14337 14379
14341 29 12027 12209 12210 12235 12400 12401 12409 12433 12435 12494 12532 12533 12569 13191 13296 13325 13326 13327 13331 13332 14308 14338 14378 14379 15070 15093 15131 15132 15154
14342 4 12440 12444 13328 13331
14343 2 12446 13351
14344 8 12318 12442 12444 13229 13234 13330 13335 15152
14345 8 12323 12402 12446 12447 13312 13341 15256 15266
14346 25 12137 12214 12319 12322 12444 12446 12472 13298 13299 13300 13301 13302 13313 13328 13341 13351 13374 13375 13381 14378 14379 14381 15255 15266 15267
14347 7 11961 12093 12224 12406 12451 12518 13186
14348 15 11756 11777 11944 11962 12223 12227 12516 12517 12519 12553 12555 12622 12819 13186 14317
14349 6 13184 14303 14306 14307 14329 14332
14350 4 13184 14307 14330 14333
14351 4 12565 12588 13186 14334
14352 9 12162 12407 12490 12613 13188 13190 14306 14332 14335
14353 8 12163 12382 12397 12432 13188 14335 14336 14382
14354 1 11938
14355 16 11833 11834 11847 11952 15284 15285 15348 15350 15352 15354 15356 15357 15364 19581 19603 19634
14356 2 14361 14436
14357 3 14369 14461 19687
14358 6 14373 14374 14428 14466 19662 19663
14359 1 14436
14360 1 14436
14361 11 13710 13794 14356 14366 14370 14426 14436 14453 19659 19676 19678
14362 2 14370 14436
14363 2 13627 14493
14364 6 14374 14402 14466 19663 19664 19665
14365 11 13712 13714 13751 13783 13785 13800 13812 28451 28460 28461 28519
14366 7 14361 14390 14425 14426 14452 14453 19659
14367 2 14454 19687
14368 3 13806 13817 14490
14369 3 14357 14461 19687
14370 9 13710 14361 14362 14436 14454 14461 19661 19679 19687
14371 5 13792 13818 14456 14457 14488
14372 4 13633 13666 13719 14493
14373 3 14358 14466 19662
14374 4 14358 14364 14466 19663
14375 11 14156 14286 14297 14431 14443 14446 14459 14460 14468 14492 14496
14376 4 14176 14277 14433 14467
14377 8 11508 11731 12662 14159 14273 14290 14402 19681
14378 6 12401 13328 14341 14346 14379 14381
14379 15 12208 12399 12568 13190 13295 13297 13332 13380 13381 14337 14340 14341 14346 14378 14381
14380 2 17760 17763
14381 3 14346 14378 14379
14382 11 12397 12432 13294 13295 13297 13313 13365 13380 13381 14336 14353
14383 7 13731 14406 14415 14416 14417 15236 15323
14384 7 13698 14407 14418 14419 14420 15243 15247
14385 3 13801 14471 28469
14386 4 14395 19653 19684 19685
14387 6 19652 19653 19654 19670 19671 19684
14388 5 14399 19655 19672 19674 19686
14389 3 14398 14425 14453
14390 6 14366 14399 14452 19659 19675 19677
14391 3 14432 19661 19680
14392 7 13741 14400 14421 14461 14462 14480 19687
14393 6 13796 14429 14432 14448 14465 14480
14394 4 14476 28450 28472 28476
14395 6 14386 14475 19648 19684 19685 28472
14396 1 28472
14397 1 19686
14398 2 14389 14425
14399 13 14388 14390 14424 14425 14452 14453 19649 19656 19674 19677 19683 19686 28472
14400 4 14392 14421 14427 19687
14401 1 14461
14402 6 14364 14377 14432 14466 19665 19681
14403 8 13827 13828 13830 13835 13837 15300 28430 28455
14404 4 13832 13833 15301 28430
14405 3 13728 13883 28430
14406 6 11840 13743 14383 14417 15236 28431
14407 6 13698 13742 14384 14419 15247 15314
14408 7 11937 12002 13744 13775 13778 14420 14423
14409 4 13776 13778 14423 14435
14410 4 13778 14110 14422 14423
14411 7 13744 13778 14097 14110 15358 15359 15362
14412 5 13744 13779 14098 14111 15365
14413 7 7716 8998 9049 13745 14098 14111 15282
14414 3 15323 28464 28482
14415 5 14383 15235 15311 15323 28482
14416 4 11935 14383 15236 15312
14417 5 13731 13773 14383 14406 28431
14418 3 14384 15243 15247
14419 3 13698 14384 14407
14420 11 11757 11844 11937 13698 13775 14384 14408 14434 15243 15294 15369
14421 4 14392 14400 14427 19687
14422 2 13778 14410
14423 11 11830 12002 13778 14097 14110 14408 14409 14410 14435 15299 15322
14424 5 13716 14399 14453 28450 28472
14425 6 14366 14389 14398 14399 14452 14453
14426 3 14361 14366 14453
14427 3 14400 14421 19687
14428 3 14358 19662 19663
14429 2 13796 14393
14430 5 13678 13810 14438 14447 14481
14431 3 14375 14446 14496
14432 10 14391 14393 14402 14448 14463 14466 14480 19661 19680 19687
14433 2 14176 14376
14434 2 13775 14420
14435 3 13778 14409 14423
14436 7 14356 14359 14360 14361 14362 14370 19679
14437 7 13735 13736 13760 13797 13803 13805 14472
14438 6 13810 14430 14447 14464 14482 14483
14439 2 14457 14472
14440 5 13806 14458 14478 14489 14491
14441 1 14472
14442 1 14493
14443 4 14375 14460 14492 14494
14444 2 14472 14481
14445 3 14493 14494 28655
14446 4 14375 14431 14459 14496
14447 5 14430 14438 14464 14481 14482
14448 4 14393 14432 14465 14484
14449 2 14469 28518
14450 2 14469 14474
14451 2 14471 28469
14452 4 14366 14390 14399 14425
14453 12 13716 13735 13794 13803 14361 14366 14389 14399 14424 14425 14426 14477
14454 3 14367 14370 19687
14455 1 14479
14456 2 14371 14479
14457 4 13792 14371 14439 14472
14458 6 13818 14440 14478 14488 14489 14491
14459 2 14375 14446
14460 5 13822 14375 14443 14492 14494
14461 8 13710 13741 14357 14369 14370 14392 14401 19687
14462 5 13720 13741 13820 14392 14480
14463 2 14432 19687
14464 4 14438 14447 14482 14483
14465 7 13796 13810 14393 14448 14483 14484 14495
14466 6 14358 14364 14373 14374 14402 14432
14467 6 14277 14287 14376 14485 14486 14497
14468 7 14156 14270 14375 14473 14485 14496 14497
14469 5 14449 14450 14474 28468 28518
14470 1 14474
14471 6 13735 13801 14385 14451 14474 28469
14472 11 13736 13792 13805 13807 13819 14437 14439 14441 14444 14457 14481
14473 3 14156 14270 14468
14474 6 13735 14450 14469 14470 14471 28468
14475 8 14395 19645 19648 19668 19669 19682 28470 28472
14476 3 14394 28450 28472
14477 5 13735 13758 13759 13803 14453
14478 5 13806 13818 14440 14458 14491
14479 2 14455 14456
14480 7 13796 13820 14392 14393 14432 14462 19687
14481 6 13678 13807 14430 14444 14447 14472
14482 3 14438 14447 14464
14483 5 13810 14438 14464 14465 14495
14484 3 14448 14465 14495
14485 3 14467 14468 14497
14486 3 14287 14467 14497
14487 2 13626 14152
14488 3 13818 14371 14458
14489 2 14440 14458
14490 3 13817 14153 14368
14491 3 14440 14458 14478
14492 6 13809 13822 14297 14375 14443 14460
14493 11 13627 13633 13719 13795 13821 14154 14363 14372 14442 14445 28655
14494 7 13679 13822 13823 14443 14445 14460 28655
14495 3 14465 14483 14484
14496 4 14375 14431 14446 14468
14497 6 14270 14287 14467 14468 14485 14486
14498 3 15179 28695 28746
14499 1 28746
14500 4 10254 10261 10267 10278
14501 7 7770 7954 10250 10259 10273 10284 14629
14502 2 7940 10277
14503 2 9716 9719
14504 4 9715 9716 9736 14569
14505 2 9714 9737
14506 1 9714
14507 6 8859 9665 9667 9720 9737 9739
14508 1 9671
14509 1 9671
14510 2 9671 9682
14511 3 9672 14592 14597
14512 2 8413 9682
14513 6 8413 8871 8905 9059 9720 9742
14514 4 8413 9672 9673 14591
14515 8 8413 9670 9679 9681 9717 9720 9739 9741
14516 9 8413 8845 8872 8905 9062 9066 9742 9743 14794
14517 2 10567 10572
14518 6 8411 8413 8414 9063 9689 14605
14519 1 9066
14520 4 8414 9066 9744 14606
14521 3 7706 9066 9703
14522 3 9697 9730 17888
14523 1 14526
14524 2 7711 14527
14525 3 7691 7711 14527
14526 13 10617 14523 18223 18224 18239 18240 18254 18265 18277 18279 18288 18289 18303
14527 5 7711 14524 14525 18230 18289
14528 3 18320 18326 18337
14529 1 18326
14530 6 7944 7967 9003 9004 18337 18646
14531 3 9011 9034 18318
14532 3 9005 9007 9034
14533 1 9006
14534 1 18318
14535 3 8992 9006 18315
14536 1 18318
14537 2 8993 9007
14538 4 7671 9006 9008 9035
14539 2 8993 9036
14540 2 18317 18326
14541 1 9036
14542 1 9035
14543 3 9010 18319 18326
14544 1 18336
14545 1 9043
14546 4 7849 7853 9043 14879
14547 7 9044 14878 18086 18093 18099 18100 18202
14548 5 18087 18088 18089 18201 18207
14549 3 9047 18208 18217
14550 5 9885 18079 18203 18204 18215
14551 1 18204
14552 9 8615 9047 14560 18200 18206 18208 18212 18213 18217
14553 2 18095 18212
14554 3 18095 18096 18218
14555 4 18096 18097 18209 18219
14556 3 18097 18210 18219
14557 3 8615 18211 18219
14558 1 18326
14559 1 18336
14560 5 9045 9047 14552 18206 18217
14561 3 8615 8906 9047
14562 2 8873 8906
14563 3 7875 7892 15376
14564 2 7892 15376
14565 6 8836 8837 8838 15376 15377 15378
14566 5 7823 7893 8839 10482 15378
14567 1 7893
14568 2 7893 15378
14569 6 8858 9674 9676 9715 9716 14504
14570 1 8858
14571 1 8858
14572 2 8858 9662
14573 5 8862 9663 9676 9716 9738
14574 5 8858 9675 9677 9714 9737
14575 2 8858 9662
14576 1 8858
14577 3 8859 9665 9677
14578 3 8860 9666 9678
14579 2 9669 9678
14580 1 9669
14581 1 9669
14582 1 9670
14583 1 9670
14584 1 9670
14585 3 8862 9663 9668
14586 2 9673 9718
14587 1 9670
14588 2 9671 9718
14589 2 8862 9683
14590 2 9683 14594
14591 2 9673 14514
14592 3 9672 14511 14597
14593 7 8894 8895 14606 14609 14656 14658 14731
14594 3 8862 9683 14590
14595 2 8862 9684
14596 1 8862
14597 4 8889 9672 14511 14592
14598 2 8862 9684
14599 1 8862
14600 1 8862
14601 1 8889
14602 1 8889
14603 2 8862 8889
14604 3 8889 9685 9721
14605 15 8411 8413 8414 8864 8865 8875 8876 8877 8889 9686 9687 9688 9689 9721 14518
14606 16 8414 8894 8895 9054 9066 9744 14520 14593 14655 14656 14725 14727 14728 14729 14730 14731
14607 3 8709 8896 14734
14608 6 8414 8709 8892 8896 8897 14733
14609 4 8894 8895 14593 18707
14610 2 8869 8897
14611 3 9048 9749 10408
14612 3 9764 10408 10584
14613 2 9764 10409
14614 1 10411
14615 2 10410 10411
14616 2 9754 10411
14617 2 10594 18748
14618 3 9757 18748 18749
14619 9 8772 14628 16476 16478 16480 16523 16529 16531 18373
14620 1 14626
14621 2 9848 14626
14622 4 8472 14626 16533 19736
14623 1 14626
14624 2 10823 14627
14625 3 8484 10829 20048
14626 18 8472 8473 8476 9654 9805 9848 9881 14620 14621 14622 14623 14686 14687 14690 14811 16533 19736 19817
14627 11 8474 8475 8481 8482 8483 8486 9881 10823 14624 19739 20116
14628 3 14619 16476 16523
14629 6 7939 7940 7954 10250 14501 14664
14630 1 9856
14631 1 9856
14632 2 9805 19817
14633 2 9805 19817
14634 2 9880 18260
14635 2 10608 18260
14636 3 7650 7968 14846
14637 5 7659 7672 7681 7850 9693
14638 4 7646 7647 7850 16534
14639 5 7647 7648 7850 14877 16534
14640 2 7850 14877
14641 1 19841
14642 3 14703 19753 19841
14643 2 19763 19844
14644 3 18291 19804 19848
14645 1 19845
14646 2 7691 7711
14647 2 19773 19855
14648 5 9427 9429 14757 19691 19858
14649 1 19850
14650 1 19851
14651 3 19769 19773 19865
14652 1 8889
14653 1 19773
14654 1 19773
14655 2 9054 14606
14656 2 14593 14606
14657 2 8894 14736
14658 2 8894 14593
14659 3 8867 8897 14736
14660 3 8868 8893 18694
14661 2 8894 14736
14662 3 17888 18724 18898
14663 4 9427 14816 18309 19691
14664 6 7923 7939 7940 7942 7957 14629
14665 2 9876 9906
14666 7 7924 7928 7945 7947 9569 9570 9572
14667 2 7959 9571
14668 1 7959
14669 3 7696 7959 8512
14670 3 7947 8515 9572
14671 3 9856 10287 19816
14672 3 7947 7967 17897
14673 1 19816
14674 2 7967 17897
14675 2 7696 9575
14676 4 7696 8857 8886 9577
14677 4 8412 8886 9577 9733
14678 2 8515 17897
14679 2 7696 9577
14680 2 7696 8514
14681 1 9806
14682 2 10287 19817
14683 3 7695 8887 9577
14684 1 19817
14685 2 7697 17897
14686 3 9848 9881 14626
14687 2 9881 14626
14688 1 9881
14689 1 9881
14690 2 9881 14626
14691 1 19739
14692 1 19838
14693 3 9417 19740 19841
14694 1 19841
14695 2 9589 19841
14696 2 9589 19841
14697 2 9076 19841
14698 2 7659 7850
14699 2 18282 18304
14700 3 18450 19753 19841
14701 2 19753 19841
14702 2 19753 19841
14703 3 14642 19753 19841
14704 2 18457 19841
14705 2 18457 19841
14706 8 7649 7660 7682 7850 7853 8995 9700 14877
14707 2 18456 19845
14708 6 7649 7675 7682 7683 9700 9849
14709 1 19845
14710 1 19845
14711 1 19845
14712 2 18457 19841
14713 1 18309
14714 2 18309 19804
14715 3 9611 19761 19847
14716 5 7714 8871 8872 8904 8905
14717 9 7602 8538 8540 8877 14791 14792 14793 14815 18673
14718 2 9441 19769
14719 1 19777
14720 1 19777
14721 3 19777 19778 19865
14722 4 10221 19777 19778 19865
14723 2 10761 19858
14724 2 19780 19860
14725 2 9744 14606
14726 3 10238 18509 19860
14727 2 9744 14606
14728 2 9744 14606
14729 2 9744 14606
14730 2 9054 14606
14731 3 8894 14593 14606
14732 1 9696
14733 2 8896 14608
14734 2 8896 14607
14735 3 8882 8893 9725
14736 9 8414 8867 8869 8894 8897 14657 14659 14661 18707
14737 4 8709 8896 8899 9745
14738 2 8709 8897
14739 2 8898 18707
14740 3 8710 8901 18707
14741 2 8709 8899
14742 5 8698 8708 8709 8899 8907
14743 1 9902
14744 7 8870 8883 8884 14803 17861 17878 17888
14745 5 8884 14803 14804 17861 17888
14746 3 8884 14804 17863
14747 2 8545 17888
14748 4 9712 9713 9730 17888
14749 2 17888 18898
14750 2 13692 14189
14751 2 19746 19841
14752 3 10204 19749 19841
14753 1 19749
14754 2 19749 19841
14755 3 10215 18440 19841
14756 3 7692 7711 14765
14757 6 9434 9435 9436 9444 14648 19858
14758 3 9458 14826 19858
14759 3 18499 19780 19860
14760 3 18499 18501 19860
14761 5 9630 19710 19715 19806 20192
14762 2 9861 19865
14763 8 8777 9544 9817 9861 19725 19796 19797 19865
14764 1 7711
14765 10 7692 7711 9428 9432 9437 14756 19695 19811 19812 19852
14766 3 19791 19795 19861
14767 6 9860 10227 18531 18532 19795 19865
14768 2 7694 8416
14769 3 7967 9010 18326
14770 1 7654
14771 7 7654 7655 7663 7962 9011 14828 14846
14772 2 7701 7709
14773 1 7709
14774 3 7702 7709 17899
14775 4 7701 7709 7758 9059
14776 4 8906 17890 17900 18688
14777 3 7705 8895 9066
14778 2 9703 17900
14779 3 7706 9704 13504
14780 2 9862 17906
14781 3 8901 9645 17893
14782 4 7931 7967 9010 18340
14783 2 7954 10258
14784 1 7947
14785 2 7696 9575
14786 2 10630 19743
14787 4 9094 10626 19743 19838
14788 1 19838
14789 3 9094 19838 19841
14790 2 8877 9719
14791 6 7589 7607 8540 8877 14717 14815
14792 2 14717 18673
14793 2 8877 14717
14794 4 8872 9052 9062 14516
14795 2 8414 8877
14796 1 8414
14797 3 9051 9052 9062
14798 1 19865
14799 1 8900
14800 2 8714 8900
14801 1 8900
14802 1 8900
14803 5 8884 14744 14745 17861 17888
14804 5 8884 14745 14746 17863 17888
14805 2 9835 9900
14806 2 7694 9570
14807 2 7694 9570
14808 1 9876
14809 1 9876
14810 2 7967 17897
14811 3 14626 16533 19736
14812 4 7643 7850 17910 18406
14813 5 7643 7644 7850 17910 17916
14814 2 7708 17899
14815 3 14717 14791 18673
14816 3 14663 18309 19691
14817 4 7713 9437 9443 19852
14818 3 9857 9885 18214
14819 3 10238 18521 19860
14820 3 19791 19795 19861
14821 2 9860 19795
14822 2 9860 19795
14823 1 9894
14824 3 7713 9443 19854
14825 3 9444 19696 19858
14826 4 9458 14758 19696 19858
14827 4 7941 7943 7956 9004
14828 4 7655 7962 14771 14846
14829 2 8617 17900
14830 4 8533 8617 8618 17900
14831 1 17900
14832 1 17900
14833 2 19800 19867
14834 1 17894
14835 4 7762 9707 9710 17894
14836 1 17894
14837 1 9902
14838 1 9902
14839 2 9709 17894
14840 2 9709 17894
14841 2 8963 10281
14842 4 7967 8957 8964 8978
14843 4 7650 7968 8976 17913
14844 12 7650 7664 7676 7677 7938 7951 7963 7969 8582 17913 17914 18322
14845 3 7965 8544 8606
14846 13 7650 7655 7665 7850 7962 7968 8976 8980 14636 14771 14828 17909 18406
14847 2 9710 17900
14848 2 14861 28441
14849 2 14861 28441
14850 1 14860
14851 2 14858 14860
14852 4 13781 14860 14862 28381
14853 3 8280 8468 14863
14854 5 8620 13781 14859 14860 15438
14855 2 14861 28441
14856 3 13781 14862 15438
14857 2 14860 28381
14858 5 14851 14859 14860 14863 28381
14859 4 8620 14854 14858 14863
14860 8 13781 14850 14851 14852 14854 14857 14858 28381
14861 4 14848 14849 14855 28441
14862 5 13781 14852 14856 28380 28381
14863 9 8280 8437 8464 8468 8620 14853 14858 14859 28381
14864 7 7668 7966 14869 14874 14875 16534 17915
14865 2 14875 17917
14866 1 14877
14867 3 14873 14877 14879
14868 3 7661 14871 14878
14869 3 7668 14864 17915
14870 2 14877 16535
14871 3 7661 14868 14878
14872 1 14878
14873 4 14867 14877 14879 16495
14874 6 7645 7646 7657 7668 14864 16534
14875 5 7966 14864 14865 16534 17917
14876 1 16534
14877 16 7648 7850 7853 7966 8519 14639 14640 14706 14866 14867 14870 14873 14879 16495 16534 16535
14878 17 7661 7675 7853 8995 9849 9883 14547 14868 14871 14872 18086 18098 18099 18100 18216 18321 18333
14879 9 7849 7853 9020 9043 14546 14867 14873 14877 16495
14880 4 10938 18948 18995 19075
14881 3 10938 18948 18995
14882 1 11016
14883 4 11016 19024 19175 19185
14884 3 11016 13965 19185
14885 9 13862 13962 13963 13964 13965 14020 19180 19181 19183
14886 4 10967 11016 11019 13965
14887 2 10969 14022
14888 7 10970 11021 14022 19199 19200 19203 19398
14889 9 10880 10882 10884 11022 14898 15730 15768 15776 15838
14890 3 10884 14898 19210
14891 1 13976
14892 2 13976 19220
14893 10 10886 10887 13971 15777 19208 19214 19215 19216 19225 19228
14894 9 7632 10433 13976 15604 19226 19227 19229 20223 20224
14895 3 10937 18930 19067
14896 10 10833 10834 10835 10937 18930 18941 18993 19065 19067 19073
14897 1 19208
14898 10 10884 10973 11022 13969 14889 14890 15837 19208 19210 19400
14899 2 14005 19430
14900 2 13870 19037
14901 9 10440 13869 13873 13950 14906 14907 18742 19310 19430
14902 6 13872 13874 14007 14009 14907 19037
14903 9 10919 10920 10921 10922 14041 15804 15860 15861 19315
14904 6 10922 10923 14041 15804 15861 15862
14905 3 11005 18914 18990
14906 3 10440 14901 15748
14907 16 13902 13903 14009 14901 14902 15749 15751 15794 15798 15799 19036 19037 19310 19311 19316 19436
14908 2 7988 18745
14909 2 10442 16002
14910 2 7988 16004
14911 9 11372 11399 11460 14965 14967 14970 14971 14986 14990
14912 5 11326 11328 16043 16343 19493
14913 1 14196
14914 1 14196
14915 2 16357 28674
14916 2 16357 28674
14917 4 11439 13882 14161 15809
14918 6 14160 14161 14162 14954 14955 15809
14919 3 13908 14162 14956
14920 1 16009
14921 1 11322
14922 12 11251 11322 11323 13908 13909 14163 14957 14992 16008 16009 19460 19462
14923 7 11260 11261 11264 14168 14994 14995 14997
14924 1 11263
14925 3 11262 11263 13909
14926 5 11264 13909 14057 14073 14168
14927 5 11263 11325 13909 14075 14959
14928 3 11266 14959 14961
14929 1 14075
14930 1 14075
14931 1 14075
14932 3 14074 14075 14963
14933 3 11385 14986 16721
14934 2 11385 11669
14935 3 11385 11447 11669
14936 4 11385 11447 11669 14986
14937 3 11452 11669 14964
14938 3 11405 11664 11669
14939 2 11405 11669
14940 6 11680 12028 12031 12240 12383 15079
14941 3 11327 14082 16342
14942 8 11517 11518 14081 14182 14184 14191 16348 19533
14943 3 14130 28667 28689
14944 4 14186 14196 28667 28689
14945 2 14196 28689
14946 4 14130 28667 28674 28689
14947 2 14196 16467
14948 4 14188 14196 16059 28706
14949 4 11469 11470 16357 28706
14950 4 10923 10926 14041 15862
14951 3 10927 10930 11002
14952 13 10929 10930 10931 10932 10933 11002 11004 14044 15807 15808 15863 15864 15865
14953 4 11004 11359 11439 15865
14954 3 14161 14918 15809
14955 5 13571 14160 14161 14162 14918
14956 4 13571 13908 14162 14919
14957 8 11254 11255 11256 11323 11324 14922 14992 14993
14958 11 11256 11257 11258 11259 13909 14164 14165 14166 14167 14993 14996
14959 7 11265 11266 11325 13909 14169 14927 14928
14960 1 14074
14961 3 11266 13909 14928
14962 1 14074
14963 2 14074 14932
14964 3 11452 11669 14937
14965 13 11371 11393 11397 11399 11455 11459 11460 11672 11677 14911 14966 14970 14986
14966 4 11455 11459 11478 14965
14967 2 11460 14911
14968 4 11401 11680 14990 15079
14969 2 11391 15000
14970 3 11399 14911 14965
14971 4 11401 11460 14911 14990
14972 24 11190 11235 11240 11291 11309 11313 11670 12957 12958 14975 14976 15048 15052 15053 15054 15055 15057 15062 15063 15064 15065 16626 16758 16760
14973 2 15051 16626
14974 13 11353 11625 11630 11632 11671 15049 15050 15056 15059 15060 15066 15068 15148
14975 3 11313 14972 16626
14976 6 11624 12957 14972 15048 15063 15064
14977 2 11385 11669
14978 2 11385 11669
14979 2 11385 11669
14980 8 11461 14127 15004 16700 16701 16702 16703 16704
14981 4 11463 14127 15007 16723
14982 2 15017 16742
14983 2 15017 16742
14984 16 11666 14120 15008 15009 15017 15035 15036 16712 16720 16724 16726 16727 16738 16739 16741 16742
14985 11 11354 15017 15018 15019 15039 15160 16732 16742 17318 17319 17323
14986 20 11385 11405 11668 11669 11672 11683 14911 14933 14936 14965 14987 14988 14989 14990 15000 16706 16721 16722 16728 16743
14987 2 14986 16728
14988 3 11672 14986 15000
14989 1 14986
14990 8 11344 11401 14911 14968 14971 14986 15079 16743
14991 2 11256 14164
14992 7 11253 11255 11322 11324 14164 14922 14957
14993 11 11254 11256 11257 11264 14054 14056 14071 14072 14957 14958 16009
14994 2 11260 14923
14995 3 11261 14168 14923
14996 7 11257 11258 11259 13909 14167 14168 14958
14997 3 11260 11264 14923
14998 3 11264 14055 14072
14999 5 11264 14072 14073 15910 15969
15000 10 11391 11392 11406 11451 11478 11668 11672 14969 14986 14988
15001 4 13412 15010 15043 28396
15002 2 15011 15044
15003 5 8909 15011 15044 15045 18791
15004 4 11661 14127 14980 16704
15005 15 11355 11356 11381 11382 11383 11384 11663 11666 14139 14141 14142 14145 15027 15028 15029
15006 5 11387 11665 11666 14127 15030
15007 9 11462 11463 14127 14128 14981 15013 15030 16723 16725
15008 9 11663 11666 14142 14146 14984 15017 15032 15035 15042
15009 2 14984 15036
15010 4 15001 15043 28384 28396
15011 7 15002 15003 15024 15044 18781 18791 18793
15012 2 8715 15043
15013 5 11462 14127 14128 15007 15030
15014 8 11388 11675 14103 15020 15026 15033 15034 16816
15015 6 11674 15021 15037 15040 15148 17650
15016 5 11350 11674 15037 15171 17650
15017 15 11341 11348 11351 11352 11354 11673 14146 14982 14983 14984 14985 15008 15026 15041 16742
15018 3 14985 15160 17318
15019 4 14985 15160 17318 17323
15020 2 11675 15014
15021 5 11390 11407 15015 15037 15040
15022 7 11354 11675 12975 15026 15160 15172 17650
15023 6 7857 8715 8908 8909 15045 18074
15024 5 15011 18783 18790 18792 18793
15025 9 8164 8182 8717 8718 18783 18784 18790 18794 18795
15026 20 11349 11354 11384 11388 11663 11673 11675 14103 14141 14143 14144 14145 15014 15017 15022 15031 15033 15034 15038 15041
15027 4 11383 14139 14145 15005
15028 4 11382 11383 14139 15005
15029 5 11355 11356 11663 14142 15005
15030 7 11387 11665 14127 15006 15007 15013 16725
15031 4 11663 14146 15026 15041
15032 2 14146 15008
15033 4 11675 14145 15014 15026
15034 2 15014 15026
15035 4 11666 14120 14984 15008
15036 4 11666 14120 14984 15009
15037 11 11350 11390 11674 11675 14119 15015 15016 15021 15170 15171 15181
15038 4 11349 11464 11673 15026
15039 2 11354 14985
15040 7 11353 11395 11407 11636 15015 15021 15148
15041 4 14146 15017 15026 15031
15042 3 11663 14146 15008
15043 8 7856 7857 8715 15001 15010 15012 18073 28384
15044 6 8715 8909 15002 15003 15011 18791
15045 6 8053 8909 15003 15023 18074 18791
15046 3 8412 8419 18075
15047 5 11295 11627 11642 11726 15066
15048 5 11624 14972 14976 15052 15063
15049 10 11312 11625 11630 11637 11641 11671 14974 15056 15066 15069
15050 3 11353 14974 15056
15051 8 11297 11633 12948 14973 15061 15067 16626 17726
15052 5 11624 11626 14972 15048 15062
15053 1 14972
15054 2 12957 14972
15055 1 14972
15056 6 11353 11625 14974 15049 15050 15069
15057 2 14972 16626
15058 2 12958 16626
15059 3 14974 15068 15148
15060 11 11633 11638 11642 11780 11811 11812 11905 14974 15066 15068 16626
15061 4 11633 11780 15051 17726
15062 6 11240 11295 11626 11726 14972 15052
15063 3 14972 14976 15048
15064 3 12957 14972 14976
15065 2 12957 14972
15066 8 11627 11637 11642 11671 14974 15047 15049 15060
15067 2 15051 16626
15068 7 11780 11905 14974 15059 15060 15148 15163
15069 7 11353 11628 11640 11641 11667 15049 15056
15070 7 12027 12211 12212 13331 14341 15090 15152
15071 9 12136 13378 15246 15251 15258 15262 15265 15270 17449
15072 4 12325 17003 17453 17457
15073 2 11768 12325
15074 1 12325
15075 2 17313 17517
15076 15 11771 12325 13225 13236 13237 13238 13239 13253 13288 13289 13345 13347 13349 15206 17517
15077 1 13224
15078 13 12146 12218 12219 12469 13211 13212 13217 13224 13291 13350 15208 15210 17658
15079 11 11680 12028 12031 14940 14968 14990 16743 17328 17330 17527 17541
15080 5 12034 12169 12245 15123 15187
15081 6 12042 12102 12169 12255 15123 15142
15082 5 11868 12037 17264 17265 17341
15083 2 11913 17267
15084 18 12042 12101 12250 12253 12256 12259 12385 12386 12459 12473 13067 15099 15101 17262 17267 17343 17349 17469
15085 39 12031 12045 12105 12109 12110 12113 12117 12174 12258 12347 12992 13018 13068 13070 13073 13074 13076 13083 13087 15095 15100 15102 15104 15105 15106 15107 15108 15136 15137 15138 17276 17333 17335 17339 17361 17468 17479 17527 17552
15086 12 12054 12145 12306 12307 12328 12362 12467 12471 15125 17277 17553 17648
15087 2 15124 17512
15088 10 11856 12306 13053 15124 15144 15145 17407 17511 17512 17648
15089 5 15122 15126 17030 17162 17203
15090 4 12211 13331 15070 15152
15091 5 12098 12441 15201 16912 17443
15092 5 13058 14321 15153 17037 17175
15093 6 12235 14328 14331 14341 15131 15154
15094 2 12532 15154
15095 4 12031 12240 12992 15085
15096 11 12030 12165 12166 12241 12412 15134 17329 17334 17525 17540 17612
15097 4 12242 12413 17261 17337
15098 4 12099 12473 13066 17336
15099 4 12259 12473 13066 15084
15100 11 11963 12032 12105 12249 12254 12384 12992 13002 13063 15085 15135
15101 4 12250 12259 12388 15084
15102 4 12111 13073 13074 15085
15103 4 11983 12752 15130 17669
15104 4 12111 13074 13076 15085
15105 3 12113 13083 15085
15106 4 12048 12174 13087 15085
15107 2 15085 15138
15108 2 15085 15138
15109 3 12117 13017 17552
15110 4 12762 12830 12887 17546
15111 3 12280 12424 17753
15112 4 12762 12831 13023 17546
15113 4 12287 12729 13023 17546
15114 2 11992 17753
15115 2 12301 17754
15116 3 12764 13026 17547
15117 6 11974 12121 12122 12354 13024 17754
15118 7 12120 12301 12347 13096 15138 17552 17645
15119 13 11993 12052 12124 12294 12348 12350 12355 12464 13022 13025 13029 13097 17753
15120 12 12054 12471 12730 12764 12766 12842 12843 12971 13030 13031 17547 17615
15121 5 11927 12366 12367 13055 17512
15122 5 11931 15089 15126 15127 17203
15123 17 11981 12039 12040 12106 12169 12245 12252 12337 12339 12456 15080 15081 15141 15142 17358 17542 17669
15124 6 12367 15087 15088 15143 15144 17512
15125 6 12145 12307 12328 12362 12363 15086
15126 7 11805 11929 11931 15089 15122 17027 17162
15127 4 11931 12309 15122 17203
15128 3 11931 12309 17203
15129 2 11981 17669
15130 9 11870 11981 12751 12752 12820 12840 15103 15140 17669
15131 10 12433 14324 14327 14331 14334 14339 14341 15093 15153 15154
15132 4 12569 14341 15154 15169
15133 3 12569 15169 17283
15134 6 12165 12242 12412 12413 15096 17334
15135 5 11955 12249 13063 13064 15100
15136 5 12110 12111 13072 13073 15085
15137 2 12113 15085
15138 7 12301 12347 13018 15085 15107 15108 15118
15139 5 11801 11972 12122 13021 17754
15140 5 11754 11911 11981 12751 15130
15141 2 15123 17542
15142 6 12042 12171 15081 15123 17358 17469
15143 3 12367 15124 17512
15144 6 11856 12367 12371 12468 15088 15124
15145 4 11856 12134 13053 15088
15146 3 11927 13055 17510
15147 6 11942 16876 16930 17049 17183 19585
15148 22 11353 12977 12978 12983 12986 12990 14974 15015 15040 15059 15068 15159 15161 15162 15163 15165 15166 15168 15174 15186 17322 17650
15149 3 12243 15168 15187
15150 5 12169 12243 12997 15168 15176
15151 2 12099 15176
15152 25 12211 12212 12318 12319 12441 12442 12444 13229 13232 13329 13330 13331 13335 14344 15070 15090 15230 15248 15253 15263 15271 17113 17114 17121 17123
15153 8 12609 14321 14324 14334 15092 15131 17175 17282
15154 21 12235 12532 14324 14325 14327 14328 14331 14341 15093 15094 15131 15132 15169 16935 17040 17041 17042 17176 17179 17180 17283
15155 1 28481
15156 3 15217 28455 28496
15157 5 15216 15218 28393 28481 28498
15158 3 11675 15171 15181
15159 2 15148 17650
15160 10 11354 14985 15018 15019 15022 15172 15182 17318 17323 17659
15161 2 15148 17650
15162 3 12978 15148 15174
15163 4 11780 12978 15068 15148
15164 3 12991 15183 17324
15165 5 11782 12986 15148 15185 15186
15166 3 12990 15148 15186
15167 6 12099 12167 12241 12334 12991 15176
15168 16 11815 11819 12243 12977 12990 12997 15148 15149 15150 15175 15180 15187 17322 17649 17651 17652
15169 5 12569 15132 15133 15154 17283
15170 3 11675 15037 15181
15171 6 11675 15016 15037 15158 15181 17650
15172 4 12975 15022 15160 15182
15173 1 15182
15174 5 11780 12978 12986 15148 15162
15175 5 11818 12990 12994 15168 15187
15176 10 12099 12169 12259 12991 12997 15150 15151 15167 15183 15184
15177 2 28683 28695
15178 2 15188 28695
15179 2 14498 28695
15180 2 11819 15168
15181 6 11675 15037 15158 15170 15171 15189
15182 4 15160 15172 15173 17659
15183 4 12991 12997 15164 15176
15184 2 12997 15176
15185 3 11782 12986 15165
15186 5 11782 12990 15148 15165 15166
15187 11 11815 11819 12034 12169 12243 12245 12994 15080 15149 15168 15175
15188 1 15178
15189 1 15181
15190 6 12769 12770 12884 13357 13358 20230
15191 2 17061 17105
15192 4 12770 12799 12884 17061
15193 16 12207 12434 12702 12709 12710 12771 12799 12885 13185 13359 13360 13361 13362 17061 17106 20230
15194 7 12312 12434 12692 12693 12703 12710 17107
15195 11 12312 12313 12693 12696 13307 13308 13366 13367 16946 17108 20233
15196 7 12314 12315 12696 13333 13368 17109 17241
15197 9 12315 12439 12445 13333 13373 17062 17109 17110 17241
15198 3 12445 16948 17062
15199 2 12445 16947
15200 2 15271 17115
15201 4 12441 15091 15271 17443
15202 6 15253 15257 15267 17002 17123 17126
15203 3 12026 15257 17131
15204 19 12023 12024 12025 12026 12323 12403 12404 12447 15252 15254 15256 15261 15266 16915 16951 17127 17133 17134 17135
15205 13 12161 12215 12450 12898 12917 13221 15250 15259 15260 15272 15273 17122 17145
15206 3 11771 15076 17517
15207 6 11771 13231 13238 13253 13348 17518
15208 4 12146 12219 15078 17658
15209 2 13253 17307
15210 12 12146 12936 13219 13224 13241 13253 15078 17147 17148 17309 17310 17658
15211 2 13252 17308
15212 5 12918 13252 13253 13352 17308
15213 2 17149 17812
15214 6 13226 13242 13245 13254 17149 17150
15215 3 13226 17658 17813
15216 2 15157 28498
15217 6 15156 15231 28454 28455 28496 28497
15218 5 11837 12483 15157 28393 28498
15219 6 11807 11901 13223 13231 13253 17306
15220 6 12936 13217 13218 13219 13224 13253
15221 7 15228 16088 16378 16379 16382 16383 19568
15222 2 15228 16388
15223 7 12934 13109 15228 15245 19568 19570 20231
15224 1 17102
15225 2 15228 19569
15226 8 15228 16088 16388 16911 17092 17102 19567 19569
15227 4 12836 12934 15229 19569
15228 10 12934 15221 15222 15223 15225 15226 16388 19567 19568 19569
15229 5 12835 12836 13353 15227 19569
15230 2 13331 15152
15231 4 15217 17045 28455 28497
15232 2 11933 15236
15233 1 11840
15234 2 15240 15291
15235 3 14415 15311 28482
15236 7 11840 11933 11935 14383 14406 14416 15232
15237 5 15240 15242 15244 15247 15333
15238 2 15244 15247
15239 9 15245 16372 16375 16376 16380 16383 16522 19568 19570
15240 6 15234 15237 15244 15290 15291 15333
15241 3 11840 15313 15329
15242 5 15237 15247 15314 15331 15333
15243 5 11757 14384 14418 14420 15247
15244 9 11757 15237 15238 15240 15247 15291 15292 15294 15321
15245 4 15223 15239 19568 19570
15246 2 15071 15270
15247 10 11757 14384 14407 14418 15237 15238 15242 15243 15244 15314
15248 2 12441 15152
15249 4 12136 15273 17120 17449
15250 3 13221 15205 15273
15251 3 15071 15265 17449
15252 4 12323 13312 15204 16951
15253 8 12137 12319 14316 15152 15202 15263 15267 17123
15254 4 12024 12403 12404 15204
15255 6 12026 12322 12404 14346 15266 15267
15256 7 12023 12025 12321 12323 12447 14345 15204
15257 5 12026 15202 15203 15267 17128
15258 10 11746 11748 11767 12325 13378 13379 15071 15262 15265 15273
15259 4 12450 15205 15272 15273
15260 3 12215 15205 15272
15261 10 12026 12405 15204 15269 16915 17138 17139 17140 17141 17143
15262 5 12136 13379 15071 15258 15273
15263 2 15152 15253
15264 3 11764 16999 17451
15265 7 11746 12325 15071 15251 15258 17003 17449
15266 8 12404 12446 12447 12472 14345 14346 15204 15255
15267 9 12026 12137 12322 14316 14346 15202 15253 15255 15257
15268 8 11748 11767 11769 11770 11851 13235 13236 15273
15269 4 15261 17140 17141 17142
15270 3 12136 15071 15246
15271 9 12441 15152 15200 15201 16912 17114 17115 17443 17444
15272 5 12215 12450 15205 15259 15260
15273 21 11767 11851 12136 12161 12324 12448 12450 13221 13248 13249 13303 15205 15249 15250 15258 15259 15262 15268 17003 17120 17122
15274 4 11950 15340 15341 15349
15275 5 11760 11761 11951 15351 15353
15276 8 11762 11846 11951 11952 11997 15352 15353 15355
15277 2 11847 11952
15278 8 11761 11762 11832 11846 11848 15322 15351 15355
15279 1 15362
15280 9 11848 11953 11997 11998 11999 14097 15322 15363 15364
15281 6 11836 11850 11939 12001 14111 15365
15282 5 9049 9401 11850 14111 14413
15283 2 11850 15367
15284 4 11847 11997 14355 15357
15285 7 11834 11997 14355 15357 15360 15361 15364
15286 10 9393 9394 9395 9397 9398 11850 12000 15366 15367 19582
15287 2 11840 19631
15288 6 15307 19627 19628 19629 19630 28392
15289 9 11839 11840 15324 15326 15328 15330 15332 19601 19631
15290 2 15240 15333
15291 10 11828 11841 11842 15234 15240 15244 15316 15318 15333 19632
15292 2 15244 15321
15293 2 15321 15369
15294 6 11757 11844 14420 15244 15321 15369
15295 10 11758 11843 11936 15315 15317 15319 15320 15368 15370 19673
15296 3 11845 11947 15370
15297 10 11845 11936 11938 11947 11949 11950 15337 15338 15349 15370
15298 2 11831 15370
15299 7 11829 11830 11831 12002 14423 15322 15370
15300 8 13830 13831 13835 13837 14403 16929 17048 17051
15301 4 13832 13833 14404 17051
15302 3 19579 19626 28392
15303 2 19579 28392
15304 1 28392
15305 1 28482
15306 1 11840
15307 2 15288 28392
15308 1 28482
15309 1 11935
15310 1 11840
15311 3 11934 14415 15235
15312 2 11935 14416
15313 2 11840 15241
15314 3 14407 15242 15247
15315 1 15295
15316 1 15291
15317 1 15295
15318 1 15291
15319 1 15295
15320 1 15295
15321 5 15244 15292 15293 15294 15369
15322 9 11831 11832 11848 14097 14423 15278 15280 15299 15351
15323 6 13731 14383 14414 14415 28464 28482
15324 2 11840 15289
15325 1 11840
15326 1 15289
15327 1 11840
15328 1 15289
15329 2 11840 15241
15330 1 15289
15331 1 15242
15332 2 11840 15289
15333 7 11828 11841 15237 15240 15242 15290 15291
15334 2 11936 19580
15335 2 11936 19580
15336 2 11936 19580
15337 4 11936 11938 15297 19580
15338 5 11831 11947 11948 11950 15297
15339 2 11938 14318
15340 2 11950 15274
15341 2 11950 15274
15342 2 11759 11950
15343 2 11759 11950
15344 1 11951
15345 2 11760 11951
15346 1 11951
15347 3 11938 14318 19604
15348 1 14355
15349 5 11938 11949 11950 15274 15297
15350 2 14355 19603
15351 8 11760 11761 11831 11832 11950 15275 15278 15322
15352 4 11951 11952 14355 15276
15353 5 11761 11846 11951 15275 15276
15354 2 11952 14355
15355 4 11762 11846 15276 15278
15356 3 11833 14355 19581
15357 5 11834 11997 14355 15284 15285
15358 1 14411
15359 1 14411
15360 2 11997 15285
15361 2 11997 15285
15362 3 14097 14411 15279
15363 1 15280
15364 5 11997 11999 14355 15280 15285
15365 9 11835 11836 11849 11939 12001 14111 14412 15281 19582
15366 6 11850 11954 12000 12001 15286 19582
15367 3 11850 15283 15286
15368 1 15295
15369 6 11844 11937 14420 15293 15294 15321
15370 13 11829 11831 11843 11845 11936 11937 11947 12002 15295 15296 15297 15298 15299
15371 3 7869 8408 8825
15372 2 7997 8835
15373 18 7802 7870 7872 8315 8325 8336 8409 8410 10481 10490 10501 10505 10506 10557 18865 18866 18884 18885
15374 1 7875
15375 2 7874 18869
15376 7 7875 7892 8836 8838 14563 14564 14565
15377 2 8838 14565
15378 11 7892 7893 8837 8838 8839 10485 14565 14566 14568 18165 18876
15379 2 7894 18166
15380 23 8031 8076 8077 8082 8084 8085 8190 9156 9157 9158 9160 9231 9250 9312 9334 10151 10152 10159 10160 10161 10162 10166 11220
15381 2 8087 9334
15382 3 8088 8192 9334
15383 2 8038 8088
15384 2 8038 8669
15385 11 9164 9186 9240 10175 10177 10178 10179 10183 10184 11220 17996
15386 3 10300 10329 18597
15387 3 18597 18816 18897
15388 2 10300 18597
15389 2 10300 18598
15390 5 10299 10300 15631 15632 18598
15391 1 7988
15392 5 9407 11097 15405 18196 18198
15393 1 15438
15394 1 18745
15395 7 7878 9361 11087 11091 18184 18341 18352
15396 4 9407 9408 18198 18352
15397 4 9408 11079 18198 18352
15398 4 11079 15408 18197 18198
15399 2 15408 18198
15400 1 18198
15401 1 15437
15402 4 11087 15416 18352 18357
15403 3 9352 11087 15416
15404 5 11083 11097 18188 18196 18352
15405 5 11097 15392 18188 18189 18198
15406 1 13397
15407 1 13397
15408 14 11079 11106 13394 13397 13398 13403 13405 15398 15399 15440 18197 18198 18352 18359
15409 3 11107 13404 13409
15410 2 11109 13410
15411 4 11108 11111 11114 13407
15412 8 7881 9368 9371 11089 11090 11103 18185 18351
15413 4 8271 8272 8620 18809
15414 2 10402 18809
15415 2 8275 18810
15416 7 9352 10403 11087 15402 15403 18352 18357
15417 6 8467 8565 8621 18803 18807 18810
15418 14 7899 8566 9350 9362 9367 9369 9371 10404 10405 18069 18355 18804 18805 18806
15419 2 8440 8441
15420 3 11083 13383 18352
15421 2 8441 18191
15422 1 8442
15423 5 8441 11093 18191 18192 18193
15424 4 11094 13384 13386 18190
15425 1 13391
15426 4 11102 13387 13389 18190
15427 3 8442 11102 13393
15428 5 9377 9379 11104 18350 18358
15429 8 11107 11114 13396 13400 13402 13404 13409 18199
15430 5 11109 11114 13401 13408 13410
15431 6 11080 11105 11110 11114 13395 18353
15432 3 7999 11117 15443
15433 5 7920 11117 13411 15440 15443
15434 14 7898 8373 8380 8688 11084 11112 11113 11114 11115 11116 11118 11121 18346 18354
15435 7 7922 9031 11117 11119 11120 11122 11123
15436 5 8689 9409 9875 11124 11125
15437 7 7898 8687 8689 9388 11085 11125 15401
15438 7 8282 8620 13781 14854 14856 15393 18809
15439 7 8550 8567 9380 9381 15441 18070 18358
15440 6 7920 15408 15433 18356 18359 18360
15441 7 8567 9375 9376 9378 15439 18355 18808
15442 5 7918 15445 18061 18071 18120
15443 6 7916 7920 7999 11117 15432 15433
15444 3 7916 8429 18071
15445 4 7918 8429 15442 18071
15446 7 7916 7918 7919 7999 8429 9404 18061
15447 3 13539 13545 28698
15448 8 13505 13509 13519 13538 13541 13542 13546 13553
15449 6 9968 15466 15469 15558 20063 20065
15450 2 10009 15518
15451 5 10020 10035 15476 15487 15520
15452 2 10023 15476
15453 4 10050 19995 20027 20069
15454 2 9970 15469
15455 5 8809 9980 15471 15540 15560
15456 2 9982 15470
15457 3 15476 15519 15561
15458 5 9999 10011 15476 15504 15519
15459 3 10011 15504 15547
15460 7 10059 15549 19953 19962 19995 20027 20032
15461 11 8477 8802 9935 9940 15536 18416 19881 19904 19925 19941 20054
15462 2 8807 15543
15463 10 8804 8809 9948 9958 15501 15512 15544 19986 20019 20096
15464 3 8809 9961 20124
15465 5 9961 15493 20097 20124 20139
15466 7 9966 15449 15513 15514 15539 15558 20065
15467 2 15514 20065
15468 4 8809 9969 15515 15561
15469 13 8223 8226 9968 9970 15449 15454 15516 17938 19920 19932 20024 20063 20065
15470 5 9982 15456 15514 15560 20065
15471 5 8809 9969 15455 15540 15561
15472 8 8741 8809 9989 15494 15515 15521 15559 19991
15473 5 9995 9999 15503 15504 15519
15474 4 10001 10009 15521 15541
15475 2 10017 15521
15476 17 10011 10014 10020 10023 10029 10030 10033 10035 15451 15452 15457 15458 15519 15520 15523 15547 15561
15477 3 10038 10041 15526
15478 2 10049 15525
15479 3 10041 10050 15549
15480 3 10049 15528 15548
15481 2 10048 15527
15482 3 8777 10049 15524
15483 3 10053 15485 20071
15484 5 10048 10049 10207 15527 15528
15485 11 8789 10045 10046 10051 10053 10054 15483 15498 15551 20070 20071
15486 3 10063 10769 10803
15487 30 10018 10024 10031 10035 10037 10040 10043 10047 10051 10052 10056 10059 10062 10066 10067 10206 10803 10817 15451 15505 15520 15521 15529 19966 20028 20029 20032 20070 20080 20105
15488 2 15532 15563
15489 2 15534 15563
15490 14 8784 9256 10069 10072 10073 10081 10084 10087 15500 15531 15533 15534 15563 20007
15491 2 8815 16542
15492 4 8809 9959 20136 20139
15493 6 8809 9959 9961 15465 20136 20139
15494 5 9984 15472 15515 15559 15561
15495 3 15516 15560 19942
15496 8 9986 9988 9992 15502 15503 15560 15561 19961
15497 13 9990 9991 9994 9995 15504 15547 15560 19890 19921 19922 19934 19952 28574
15498 4 10051 15485 15529 15551
15499 2 15529 15542
15500 9 8789 10069 15490 15529 15531 15533 15542 15551 15563
15501 4 15463 15512 15544 20139
15502 5 9980 15496 15540 15560 15561
15503 9 9988 9992 9995 9999 15473 15496 15519 15560 19961
15504 8 9995 9999 10011 15458 15459 15473 15497 15547
15505 5 10056 10059 15487 15549 20028
15506 2 8802 18421
15507 6 8800 8801 18423 18435 18438 20055
15508 2 10243 20056
15509 5 8737 8763 8803 9945 20094
15510 2 8763 8805
15511 1 8807
15512 4 8809 15463 15501 20139
15513 15 9964 9966 10424 15466 15539 15545 15558 19906 19917 19988 19989 20096 20121 20137 20138
15514 6 15466 15467 15470 15539 15560 20065
15515 7 8741 8809 9972 15468 15472 15494 15561
15516 7 9982 15469 15495 15560 19932 19942 20065
15517 2 10003 15561
15518 3 10009 15450 20098
15519 8 9992 9999 15457 15458 15473 15476 15503 15561
15520 6 10015 10018 15451 15476 15487 15561
15521 22 9984 10001 10002 10008 10009 10010 10012 10013 10016 10017 10018 10021 15472 15474 15475 15487 15541 15559 15561 19991 20070 20098
15522 5 10021 10022 10026 20070 20141
15523 5 10033 10035 10036 15476 20026
15524 3 8777 10049 15482
15525 9 8777 10027 10045 10049 15478 15548 20070 20071 20126
15526 7 10034 10038 10039 10041 15477 15549 20028
15527 9 8745 8777 8789 10048 10049 10207 15481 15484 15550
15528 6 8746 10049 10207 15480 15484 15548
15529 14 10051 10052 10057 10058 10061 10064 10803 15487 15498 15499 15500 15542 15551 15563
15530 3 10803 15562 18573
15531 3 15490 15500 15563
15532 3 10068 15488 15563
15533 6 8789 10072 10081 10084 15490 15500
15534 4 10087 15489 15490 15563
15535 3 8787 8817 10089
15536 2 9935 15461
15537 4 8809 9960 9965 9967
15538 4 10223 18496 19779 20139
15539 11 8809 9963 9966 15466 15513 15514 15545 15546 15557 15560 20096
15540 5 9980 15455 15471 15502 15561
15541 4 10009 15474 15521 20098
15542 3 15499 15500 15529
15543 4 8807 9947 15462 15555
15544 7 8775 8804 9950 15463 15501 20060 20139
15545 4 15513 15539 15557 20096
15546 3 9963 15539 20096
15547 5 10011 15459 15476 15497 15504
15548 8 8746 8789 10045 10049 15480 15525 15528 20071
15549 9 10041 10050 10059 15460 15479 15505 15526 20027 20028
15550 3 8789 10207 15527
15551 6 8789 15485 15498 15500 15529 18564
15552 2 9588 20119
15553 4 9586 10829 19841 20119
15554 3 8763 8803 20094
15555 4 8807 9947 9949 15543
15556 1 19850
15557 2 15539 15545
15558 5 15449 15466 15513 19989 20063
15559 4 9984 15472 15494 15521
15560 20 8809 9980 9982 9985 9990 9994 9995 15455 15470 15495 15496 15497 15502 15503 15514 15516 15539 19942 19943 19952
15561 18 9969 9984 9992 10003 10008 15457 15468 15471 15476 15494 15496 15502 15515 15517 15519 15520 15521 15540
15562 5 10063 10065 10803 15530 18573
15563 15 10064 10070 10080 10082 10087 10774 15488 15489 15490 15500 15529 15531 15532 15534 18567
15564 5 15565 15566 15567 15568 28696
15565 6 13552 13553 13554 13556 15564 15568
15566 6 13509 13537 13549 15564 28696 28698
15567 4 13555 15564 15568 28696
15568 10 13554 13555 13557 13558 15564 15565 15567 28422 28423 28488
15569 5 9084 10640 15574 15578 15589
15570 10 9075 9077 10672 15575 15576 15577 15579 18252 18278 18304
15571 8 9080 9089 9112 10695 10757 15583 15584 15585
15572 3 9071 9112 10695
15573 4 10628 10639 18238 18279
15574 13 7743 7787 9084 10618 15569 18225 18227 18228 18229 18252 18264 18286 18302
15575 3 15570 18229 18252
15576 2 9075 15570
15577 2 10683 15570
15578 4 10654 10657 15569 15589
15579 5 9077 10672 15570 18278 18304
15580 5 9079 10668 10671 10675 15593
15581 3 9078 9087 10676
15582 3 9080 10757 18291
15583 2 9112 15571
15584 3 9089 9112 15571
15585 4 9080 10695 15571 18267
15586 5 10695 10720 18245 18268 18284
15587 4 7787 9115 10657 18302
15588 7 9073 10627 10632 10634 10638 10641 10657
15589 4 9084 10657 15569 15578
15590 1 9086
15591 3 9086 10659 10662
15592 3 9087 10662 10664
15593 3 9079 10668 15580
15594 2 10262 10604
15595 7 9803 9876 10262 10269 10285 10604 18295
15596 2 9077 10683
15597 3 9079 10668 10683
15598 7 8573 8576 8578 8579 8844 8974 15601
15599 10 8579 8844 8974 9405 9561 9563 9564 15602 16523 16528
15600 5 8569 8574 8577 8911 8966
15601 10 8572 8573 8575 8576 8577 8578 8844 8966 8968 15598
15602 3 8573 8579 15599
15603 3 7607 7632 15652
15604 6 7632 7970 10433 10459 14894 20224
15605 5 7634 10291 10350 10434 10460
15606 1 20203
15607 3 7627 10306 10352
15608 11 7634 7971 7972 10291 10292 10350 10351 10434 10435 20203 20204
15609 7 10292 10307 10380 10435 10436 20206 20207
15610 5 7608 7610 7640 10399 18680
15611 1 7610
15612 1 20208
15613 2 7974 20207
15614 1 10463
15615 3 7974 10362 20207
15616 1 7610
15617 4 10311 10362 20207 20208
15618 4 7612 7635 10400 18683
15619 3 7974 10362 10462
15620 4 10293 10312 10363 20208
15621 6 7979 10294 10313 10437 10466 20209
15622 7 7979 10294 10295 10313 10326 10437 20209
15623 14 7595 7596 7597 7598 7599 7600 7601 7613 7614 7615 7618 7636 18514 18533
15624 4 7636 10296 10369 15666
15625 6 7636 7979 10297 10438 10439 15667
15626 4 10440 15667 18742 18814
15627 2 10300 18582
15628 3 10331 10384 18585
15629 1 10300
15630 2 10331 18725
15631 2 10300 15390
15632 2 10299 15390
15633 3 10299 10300 18598
15634 1 10300
15635 5 7620 10336 10337 18600 20210
15636 1 10300
15637 5 7621 8622 10338 18745 20211
15638 1 8623
15639 2 8622 18745
15640 6 8623 10304 10339 10375 18840 20214
15641 4 8623 10339 10441 20214
15642 2 10340 20214
15643 7 8624 10340 10343 10446 18743 20215 20216
15644 2 10443 18745
15645 6 10341 10344 10445 20225 20226 20227
15646 3 10343 10344 20219
15647 3 10346 10446 20219
15648 11 10345 10346 10347 10348 10396 10397 10398 10446 18638 18849 20218
15649 2 7858 20218
15650 3 7858 8395 20218
15651 1 7590
15652 4 7607 7633 15603 18663
15653 1 8692
15654 2 7587 8692
15655 1 7587
15656 2 7590 7605
15657 2 7634 10306
15658 1 7605
15659 3 7587 7604 18671
15660 2 7605 18672
15661 3 7627 7634 10306
15662 3 7591 7592 7610
15663 3 7601 7636 18811
15664 2 7636 10383
15665 1 8699
15666 5 7636 10296 10297 10438 15624
15667 10 7636 7637 13874 15625 15626 18813 18814 18832 18894 18895
15668 1 15810
15669 1 15811
15670 1 15810
15671 1 15810
15672 1 15811
15673 1 10842
15674 2 10842 15817
15675 1 15811
15676 1 10953
15677 1 15817
15678 2 10953 15811
15679 1 15811
15680 3 10850 10953 15813
15681 2 10850 15814
15682 3 10845 10847 15817
15683 4 10842 10844 15812 15817
15684 2 10953 15813
15685 1 15814
15686 1 19141
15687 3 10946 15817 19141
15688 4 10851 10953 15816 19137
15689 2 15817 19141
15690 2 10854 15818
15691 1 10857
15692 1 15818
15693 1 15818
15694 2 11010 19152
15695 1 10854
15696 2 10854 15818
15697 2 11010 15820
15698 3 10857 10951 15819
15699 2 10861 19160
15700 2 10856 19158
15701 3 11012 19153 19164
15702 1 10859
15703 4 10859 10954 15820 15822
15704 2 10861 15823
15705 3 11016 15821 19166
15706 2 15823 19169
15707 2 10865 10957
15708 2 15824 19170
15709 1 15830
15710 2 10865 15827
15711 2 10868 15830
15712 3 10870 15764 15831
15713 1 15763
15714 5 10866 10869 15826 15829 19184
15715 2 10872 19186
15716 5 10853 10857 10952 15762 15828
15717 2 15764 19188
15718 4 10872 15765 15832 19189
15719 2 15767 19194
15720 1 15767
15721 4 10831 10875 19191 19197
15722 1 15767
15723 1 15768
15724 1 15769
15725 1 15769
15726 1 15769
15727 2 15769 15835
15728 2 15772 15836
15729 4 10883 15772 15773 19207
15730 8 10880 10882 14889 15768 15770 15771 15776 19198
15731 10 10890 10892 10893 15783 15784 15845 19241 19242 19244 19246
15732 1 15787
15733 2 15797 19267
15734 1 15789
15735 2 7976 15789
15736 1 15789
15737 1 15797
15738 1 15789
15739 3 10465 15788 15789
15740 1 15789
15741 1 15790
15742 1 15793
15743 1 15792
15744 2 15789 15790
15745 2 15797 15854
15746 1 15794
15747 1 15793
15748 5 10440 10468 14906 15791 15792
15749 1 14907
15750 1 15797
15751 3 14907 15794 15798
15752 1 15797
15753 1 15797
15754 1 15798
15755 1 10442
15756 1 10442
15757 5 10914 11032 15795 15797 15854
15758 2 10442 15800
15759 4 11032 15796 15803 15859
15760 1 15803
15761 2 15802 15999
15762 2 15716 15828
15763 1 15713
15764 4 15712 15717 15831 19188
15765 4 10872 15718 15832 19189
15766 1 15835
15767 5 15719 15720 15722 15834 19194
15768 4 10880 14889 15723 15730
15769 5 15724 15725 15726 15727 15835
15770 2 10882 15730
15771 1 15730
15772 4 10883 15728 15729 15836
15773 3 10883 15729 19207
15774 2 10885 15839
15775 3 10885 15839 15840
15776 5 10882 14889 15730 15838 19217
15777 6 10886 14893 19216 19218 19222 19228
15778 2 15842 19232
15779 1 10889
15780 4 10889 15843 19234 19235
15781 2 10889 19237
15782 3 10890 15844 19238
15783 2 10890 15731
15784 2 10893 15731
15785 3 15847 19247 19257
15786 2 15848 19259
15787 6 10902 10908 15732 15848 19259 19266
15788 1 15739
15789 10 7975 7976 10465 15734 15735 15736 15738 15739 15740 15744
15790 2 15741 15744
15791 3 10440 10468 15748
15792 2 15743 15748
15793 2 15742 15747
15794 3 14907 15746 15751
15795 3 10914 11032 15757
15796 7 10916 10998 11032 15759 15858 15859 19312
15797 11 10911 10988 15733 15737 15745 15750 15752 15753 15757 15854 19267
15798 3 14907 15751 15754
15799 1 14907
15800 2 10442 15758
15801 2 19314 19315
15802 3 10442 15761 15999
15803 7 10918 15759 15760 15859 15998 19312 19313
15804 6 14903 14904 15860 15861 15862 19315
15805 2 10442 15999
15806 2 16000 16001
15807 3 14952 15864 15865
15808 5 14952 15863 15864 16003 16005
15809 7 11439 14161 14917 14918 14954 15866 16007
15810 4 10953 15668 15670 15671
15811 6 10953 15669 15672 15675 15678 15679
15812 2 10844 15683
15813 3 10953 15680 15684
15814 4 10850 15681 15685 19135
15815 2 10850 19135
15816 3 10851 15688 19137
15817 19 10842 10843 10844 10845 10846 10847 10946 10947 10948 10953 11061 11077 15674 15677 15682 15683 15687 15689 19141
15818 5 10854 15690 15692 15693 15696
15819 3 10857 10951 15698
15820 7 10855 10857 10951 10954 11010 15697 15703
15821 2 11016 15705
15822 3 10859 10954 15703
15823 4 10861 15704 15706 19169
15824 3 10868 15708 19170
15825 2 10865 19176
15826 2 10866 15714
15827 2 10865 15710
15828 3 10857 15716 15762
15829 5 10866 10869 10959 15714 19177
15830 3 10868 15709 15711
15831 4 10870 15712 15764 19188
15832 3 10872 15718 15765
15833 1 10883
15834 3 10883 15767 19194
15835 5 10873 10883 15727 15766 15769
15836 3 10883 15728 15772
15837 2 14898 19210
15838 8 10884 14889 15776 19210 19211 19212 19213 19217
15839 3 10885 15774 15775
15840 3 10885 15775 19223
15841 3 10433 10459 19229
15842 5 10888 15778 19219 19224 19232
15843 4 10889 15780 19234 19235
15844 2 10890 15782
15845 6 10893 10894 15731 19244 19245 19246
15846 2 10897 19247
15847 7 10896 10897 10979 10980 15785 19247 19257
15848 5 10902 10908 15786 15787 19259
15849 6 10989 14001 19268 19274 19277 19281
15850 1 19295
15851 2 10917 19295
15852 1 19295
15853 12 10994 11029 11030 19287 19288 19289 19290 19291 19292 19293 19294 19300
15854 8 10911 10912 10914 11032 15745 15757 15797 19286
15855 4 10913 10917 19295 19302
15856 2 10917 19307
15857 6 10832 10915 19305 19306 19308 19309
15858 14 10992 10993 10997 10998 10999 11032 14040 15796 19276 19278 19279 19280 19301 19312
15859 5 10918 15759 15796 15803 19312
15860 3 14903 15804 19315
15861 4 10922 14903 14904 15804
15862 4 10923 14904 14950 15804
15863 2 14952 15808
15864 3 14952 15807 15808
15865 5 11004 11439 14952 14953 15807
15866 4 11437 11439 15809 16007
15867 1 19054
15868 1 15921
15869 1 15921
15870 1 15921
15871 1 15926
15872 1 15930
15873 1 15930
15874 1 15930
15875 8 11051 15932 15933 15934 15935 15936 15982 19077
15876 1 15941
15877 1 15947
15878 1 15951
15879 1 11076
15880 1 15951
15881 1 15953
15882 1 15955
15883 1 15955
15884 1 14019
15885 2 13857 19383
15886 2 15959 19382
15887 1 13857
15888 2 13957 14019
15889 2 13860 15959
15890 2 13868 19397
15891 2 13866 19405
15892 2 13868 13934
15893 2 13868 13935
15894 1 13868
15895 1 13868
15896 2 13868 19410
15897 2 13868 19411
15898 1 13868
15899 3 13868 13940 15967
15900 1 15968
15901 1 15968
15902 1 15968
15903 1 15968
15904 1 15968
15905 1 15968
15906 4 14010 15968 19423 19424
15907 1 19429
15908 2 13876 19432
15909 3 14054 14056 14071
15910 6 14056 14057 14072 14073 14999 15969
15911 1 14075
15912 1 14075
15913 2 13868 18986
15914 2 13933 15966
15915 3 13868 13933 13934
15916 1 13934
15917 1 19055
15918 1 19055
15919 3 11128 19047 19056
15920 3 11129 11132 19057
15921 5 11034 11129 15868 15869 15870
15922 1 11037
15923 1 11037
15924 1 11037
15925 1 11137
15926 1 15871
15927 1 11137
15928 1 11139
15929 2 11137 15972
15930 7 11138 11139 15872 15873 15874 15975 19072
15931 1 11051
15932 2 11051 15875
15933 1 15875
15934 1 15875
15935 1 15875
15936 1 15875
15937 1 11051
15938 1 11051
15939 1 11051
15940 1 11051
15941 1 15876
15942 1 11051
15943 1 11051
15944 1 11051
15945 1 11051
15946 1 11053
15947 1 15877
15948 2 11053 11074
15949 1 11074
15950 1 11074
15951 2 15878 15880
15952 1 11076
15953 3 13924 15881 19357
15954 1 19357
15955 2 15882 15883
15956 4 13853 13860 13953 19366
15957 2 13954 19373
15958 8 13860 13954 13959 13960 14019 19358 19367 19372
15959 5 13860 13958 15886 15889 19382
15960 1 13860
15961 1 13860
15962 1 13860
15963 1 13860
15964 2 13860 19389
15965 1 19390
15966 4 13866 13933 15914 19404
15967 2 13940 15899
15968 9 13941 14010 15900 15901 15902 15903 15904 15905 15906
15969 3 14073 14999 15910
15970 5 11033 11131 19055 28387 28388
15971 1 11137
15972 2 11137 15929
15973 1 11139
15974 1 11139
15975 4 11138 11139 15930 19072
15976 2 11051 11140
15977 3 11051 11071 11140
15978 1 11051
15979 2 11051 11071
15980 1 11071
15981 1 14023
15982 3 11051 15875 19077
15983 3 11051 11071 19114
15984 11 11541 11542 11543 11545 11546 11547 11548 11594 19476 19503 19504
15985 4 11358 11412 11428 19481
15986 5 11412 11434 16029 16030 16031
15987 2 11434 16033
15988 4 11430 11434 16034 16138
15989 3 11430 11434 16138
15990 6 11432 11434 11617 16036 16037 16038
15991 4 11414 16039 16040 16141
15992 7 11415 11433 11434 11619 16139 16140 28581
15993 5 15994 16446 16696 16698 16699
15994 9 11233 15993 16093 16147 16446 16448 16588 16621 16623
15995 2 16101 16160
15996 5 16098 16155 16158 16159 16407
15997 8 16108 16163 16164 16169 16588 16589 16598 16607
15998 1 15803
15999 4 10442 15761 15802 15805
16000 1 15806
16001 1 15806
16002 1 14909
16003 1 15808
16004 2 7988 14910
16005 1 15808
16006 2 7988 10469
16007 2 15809 15866
16008 1 14922
16009 5 11254 11323 14920 14922 14993
16010 2 16052 16407
16011 13 16092 16115 16143 16145 16156 16427 16447 16547 16554 16555 16571 16616 16697
16012 10 11298 16117 16175 16254 16353 16412 16415 16502 16503 16509
16013 4 16074 16114 16413 16509
16014 1 16422
16015 3 16124 16258 16416
16016 5 16117 16122 16186 16503 16508
16017 4 16122 16128 16424 16509
16018 3 16128 16424 16511
16019 2 16186 16508
16020 6 16123 16129 16417 16418 16425 16505
16021 7 16121 16178 16197 16414 16434 16504 16517
16022 29 16052 16099 16101 16103 16104 16105 16106 16107 16109 16112 16116 16118 16119 16124 16170 16183 16188 16245 16260 16263 16346 16407 16409 16410 16411 16416 16420 16421 16449
16023 4 16272 16424 16507 16510
16024 4 16124 16266 16421 16428
16025 13 16190 16191 16192 16196 16199 16207 16275 16277 16279 16282 16422 16439 16513
16026 1 11425
16027 7 11423 11424 11426 11427 11604 11605 19482
16028 3 11425 11428 19481
16029 10 11411 11412 11428 11434 11608 11609 11611 11613 11614 15986
16030 2 11412 15986
16031 2 11434 15986
16032 1 11434
16033 3 11434 11615 15987
16034 3 11434 15988 16138
16035 3 11434 11616 11618
16036 2 11434 15990
16037 1 15990
16038 3 11432 11434 15990
16039 2 11414 15991
16040 1 15991
16041 3 11327 16342 19494
16042 1 16455
16043 5 11326 14912 16341 16343 19493
16044 1 16456
16045 3 14082 16342 16344
16046 1 16458
16047 5 8681 11328 16343 16454 16456
16048 1 16349
16049 3 16349 16457 16459
16050 1 16459
16051 1 16459
16052 12 8682 16010 16022 16243 16244 16245 16407 16455 16518 16582 16584 18023
16053 3 16245 16450 16458
16054 3 11520 16349 16461
16055 1 16463
16056 10 11298 11500 11501 16245 16351 16352 16353 16450 16460 16462
16057 2 14196 16466
16058 6 11523 11524 14196 16354 16467 28706
16059 6 14196 14948 16355 16356 16467 28706
16060 1 16471
16061 3 16368 16408 16451
16062 1 16366
16063 1 28706
16064 4 17067 17068 17218 28724
16065 1 28706
16066 1 28706
16067 1 16366
16068 4 16215 16315 16368 16408
16069 2 16365 16366
16070 1 17080
16071 1 16366
16072 1 17080
16073 1 17080
16074 16 16013 16246 16247 16248 16361 16363 16368 16413 16451 16452 16453 16468 16509 16953 16956 16959
16075 1 16368
16076 3 16390 16973 17081
16077 2 16367 16972
16078 2 16367 16971
16079 1 16973
16080 8 16368 16369 16370 16373 16472 16971 16972 16978
16081 2 16377 16981
16082 4 16390 16473 16980 16982
16083 4 16377 16475 16858 17187
16084 1 16387
16085 1 16390
16086 6 16387 16474 16475 16858 16981 17085
16087 1 16387
16088 3 15221 15226 16382
16089 3 16390 16979 16984
16090 4 16387 16474 17094 17097
16091 4 16253 16390 16985 16986
16092 3 16011 16447 16547
16093 7 11233 11293 11310 11724 15994 16448 16614
16094 5 8046 8047 16582 16593 18023
16095 2 16518 16582
16096 2 16407 16519
16097 2 16407 16518
16098 3 15996 16159 16407
16099 4 16022 16407 16449 16519
16100 1 16607
16101 3 15995 16022 16160
16102 2 16169 16607
16103 1 16022
16104 2 16022 16449
16105 5 16022 16158 16160 16170 16604
16106 2 16022 16416
16107 2 16022 16416
16108 3 15997 16167 16169
16109 1 16022
16110 2 16174 16434
16111 3 16136 16425 16512
16112 5 16022 16245 16353 16411 16501
16113 1 16425
16114 3 11501 16013 16509
16115 3 16011 16257 16427
16116 11 16022 16173 16174 16176 16178 16410 16411 16414 16434 16504 16512
16117 4 16012 16016 16412 16503
16118 5 16022 16410 16416 16425 16512
16119 2 16022 16170
16120 4 16185 16419 16425 16512
16121 5 16021 16174 16182 16434 16504
16122 5 16016 16017 16415 16503 16509
16123 3 16020 16417 16425
16124 8 16015 16022 16024 16258 16260 16416 16421 16506
16125 3 16190 16422 16439
16126 1 16434
16127 2 16434 16512
16128 8 16017 16018 16202 16408 16424 16426 16509 16511
16129 13 16020 16211 16264 16267 16268 16270 16271 16284 16418 16425 16428 16439 16513
16130 4 16206 16323 16434 16517
16131 14 16185 16203 16213 16214 16269 16270 16278 16287 16289 16291 16419 16425 16434 16512
16132 1 16408
16133 2 16298 16408
16134 2 16305 16408
16135 9 16220 16236 16241 16293 16304 16312 16324 16408 16433
16136 3 16111 16425 16512
16137 1 16390
16138 5 11430 11434 15988 15989 16034
16139 3 11433 11434 15992
16140 1 15992
16141 2 11414 15991
16142 2 16549 16617
16143 8 16011 16549 16550 16554 16560 16571 16617 16618
16144 2 16550 16554
16145 2 16011 16554
16146 1 16595
16147 3 15994 16448 16621
16148 1 16605
16149 2 16595 16620
16150 1 16605
16151 1 16605
16152 1 16595
16153 3 16554 16563 16624
16154 3 16407 16518 16605
16155 2 15996 16407
16156 3 16011 16427 16554
16157 1 16563
16158 2 15996 16105
16159 3 15996 16098 16407
16160 3 15995 16101 16105
16161 1 16563
16162 4 16427 16551 16554 16563
16163 3 15997 16589 16598
16164 3 15997 16589 16607
16165 1 16427
16166 1 16427
16167 1 16108
16168 1 16427
16169 4 15997 16102 16108 16607
16170 4 16022 16105 16119 16604
16171 1 16427
16172 2 16427 17733
16173 1 16116
16174 5 16110 16116 16121 16434 16504
16175 1 16012
16176 2 16116 16414
16177 1 16256
16178 3 16021 16116 16414
16179 2 16255 16427
16180 5 12543 12734 12735 19588 19635
16181 2 12735 16256
16182 2 16121 16434
16183 1 16022
16184 3 12087 12735 19589
16185 4 16120 16131 16419 16425
16186 3 16016 16019 16508
16187 2 19590 19605
16188 2 16022 16263
16189 1 16517
16190 4 16025 16125 16422 16439
16191 1 16025
16192 1 16025
16193 5 12800 16265 19592 19607 19609
16194 1 16430
16195 3 16273 16426 16511
16196 1 16025
16197 3 16021 16434 16517
16198 1 19609
16199 2 16025 16513
16200 3 12800 19591 19609
16201 3 16285 16439 16515
16202 3 16128 16408 16511
16203 2 16131 16287
16204 2 16430 19611
16205 2 12801 19610
16206 3 16130 16434 16517
16207 2 16025 16439
16208 3 16430 19609 19611
16209 4 12775 12801 19593 19594
16210 1 16515
16211 3 16129 16289 16439
16212 1 16515
16213 3 16131 16303 16434
16214 6 16131 16286 16289 16294 16297 16434
16215 2 16068 16408
16216 2 19595 19611
16217 1 16408
16218 2 16303 16434
16219 5 16301 16317 16408 16432 16435
16220 2 16135 16433
16221 2 19611 19619
16222 8 16288 16290 16439 16515 19613 19614 19616 19617
16223 4 16306 16307 16318 16439
16224 4 16299 16309 16323 16517
16225 4 16313 16436 16439 16516
16226 2 12803 19618
16227 3 12804 19575 19624
16228 3 16249 16408 16437
16229 2 12803 12967
16230 6 16300 16311 16316 16333 16442 16517
16231 1 16437
16232 1 16440
16233 2 19624 19625
16234 4 16321 16327 16408 16437
16235 2 16330 19620
16236 6 16135 16312 16322 16324 16326 16408
16237 1 16249
16238 2 16327 16328
16239 2 16340 16440
16240 2 16340 16445
16241 9 16135 16324 16325 16332 16373 16374 16408 16438 16443
16242 1 19642
16243 3 8682 16052 18023
16244 1 16052
16245 9 16022 16052 16053 16056 16112 16346 16353 16409 16450
16246 3 16074 16361 16451
16247 2 16074 16452
16248 1 16074
16249 4 16228 16237 16368 16408
16250 1 16371
16251 1 16381
16252 1 16375
16253 2 16091 16390
16254 2 16012 16412
16255 2 16179 16427
16256 6 12735 16177 16181 16427 19586 19635
16257 2 16115 16427
16258 2 16015 16124
16259 1 16427
16260 2 16022 16124
16261 1 16427
16262 1 16427
16263 2 16022 16188
16264 1 16129
16265 4 16193 19590 19605 19607
16266 1 16024
16267 1 16129
16268 1 16129
16269 1 16131
16270 3 16129 16131 16425
16271 1 16129
16272 4 16023 16424 16510 16511
16273 2 16195 16511
16274 1 16430
16275 1 16025
16276 1 19609
16277 2 16025 16439
16278 1 16131
16279 1 16025
16280 1 16517
16281 1 16517
16282 1 16025
16283 2 16408 16511
16284 2 16129 16439
16285 3 16201 16439 16515
16286 2 16214 16434
16287 2 16131 16203
16288 2 16222 16439
16289 3 16131 16211 16214
16290 1 16222
16291 1 16131
16292 1 16517
16293 4 16135 16408 16433 16514
16294 2 16214 16434
16295 1 16408
16296 1 16408
16297 3 16214 16306 16434
16298 2 16133 16408
16299 1 16224
16300 3 16230 16442 16517
16301 2 16219 16408
16302 1 16434
16303 3 16213 16218 16434
16304 2 16135 16408
16305 2 16134 16408
16306 4 16223 16297 16434 16439
16307 1 16223
16308 1 16434
16309 1 16224
16310 1 16408
16311 2 16230 16442
16312 2 16135 16236
16313 2 16225 16439
16314 1 16439
16315 3 16068 16368 16408
16316 2 16230 16442
16317 3 16219 16408 16435
16318 2 16223 16439
16319 1 16439
16320 2 19621 19625
16321 1 16234
16322 2 16236 16408
16323 4 16130 16224 16434 16517
16324 3 16135 16236 16241
16325 1 16241
16326 1 16236
16327 2 16234 16238
16328 1 16238
16329 2 16439 16441
16330 4 16235 19620 19624 19625
16331 1 19624
16332 1 16241
16333 2 16230 16442
16334 1 16368
16335 1 16368
16336 1 16443
16337 2 16441 16444
16338 1 16445
16339 1 16445
16340 6 16239 16240 16445 16520 16522 19624
16341 1 16043
16342 5 11327 14082 14941 16041 16045
16343 5 11328 11329 14912 16043 16047
16344 4 14082 14182 16045 19530
16345 3 14182 19530 19533
16346 2 16022 16245
16347 3 11521 14185 14193
16348 7 14183 14184 14194 14196 14251 14942 19533
16349 12 11519 11520 11522 14185 14195 16048 16049 16054 16459 16461 16463 19534
16350 1 14196
16351 2 11500 16056
16352 3 11298 11501 16056
16353 7 11298 16012 16056 16112 16245 16501 16502
16354 3 14196 16058 16467
16355 2 14196 16059
16356 1 16059
16357 9 11469 11470 11471 11472 14915 14916 14949 28674 28689
16358 1 28674
16359 1 28674
16360 3 28674 28690 28704
16361 3 16074 16246 16451
16362 2 28674 28704
16363 1 16074
16364 1 16957
16365 1 16069
16366 4 16062 16067 16069 16071
16367 3 16077 16078 16972
16368 13 16061 16068 16074 16075 16080 16249 16315 16334 16335 16408 16451 16453 16472
16369 1 16080
16370 1 16080
16371 1 16250
16372 1 15239
16373 3 16080 16241 16983
16374 2 16241 16443
16375 3 15239 16252 16522
16376 1 15239
16377 6 16081 16083 16475 16858 16981 17083
16378 1 15221
16379 1 15221
16380 1 15239
16381 1 16251
16382 2 15221 16088
16383 3 15221 15239 19568
16384 1 17089
16385 1 17089
16386 1 17089
16387 10 16084 16086 16087 16090 16474 16858 17059 17085 17089 17094
16388 4 15222 15226 15228 19567
16389 1 16390
16390 12 16076 16082 16085 16089 16091 16137 16253 16389 16473 16973 16982 17081
16391 4 8734 16476 18371 18394
16392 2 8762 16493
16393 1 16523
16394 3 8733 8797 16476
16395 2 18394 19976
16396 1 16476
16397 6 10822 16476 16479 18387 18394 18395
16398 4 8802 16481 19974 20043
16399 2 14223 16493
16400 3 9140 10115 16493
16401 1 16493
16402 3 8175 9146 9337
16403 3 9214 16494 18636
16404 5 9214 9215 9304 10168 16494
16405 6 9152 9214 9313 10168 16494 18636
16406 8 8011 8020 8025 9135 9146 9337 10151 16493
16407 13 15996 16010 16022 16052 16096 16097 16098 16099 16154 16155 16159 16518 16519
16408 33 16061 16068 16128 16132 16133 16134 16135 16202 16215 16217 16219 16228 16234 16236 16241 16249 16283 16293 16295 16296 16298 16301 16304 16305 16310 16315 16317 16322 16368 16451 16509 16511 16514
16409 2 16022 16245
16410 4 16022 16116 16118 16512
16411 3 16022 16112 16116
16412 4 16012 16117 16254 16503
16413 2 16013 16074
16414 5 16021 16116 16176 16178 16504
16415 4 16012 16122 16503 16509
16416 7 16015 16022 16106 16107 16118 16124 16506
16417 3 16020 16123 16505
16418 3 16020 16129 16505
16419 4 16120 16131 16185 16512
16420 1 16022
16421 3 16022 16024 16124
16422 5 16014 16025 16125 16190 16513
16423 1 19605
16424 7 16017 16018 16023 16128 16272 16507 16511
16425 12 16020 16111 16113 16118 16120 16123 16129 16131 16136 16185 16270 16512
16426 3 16128 16195 16511
16427 24 16011 16115 16156 16162 16165 16166 16168 16171 16172 16179 16255 16256 16257 16259 16261 16262 16551 16554 16626 16627 17707 17714 17733 19586
16428 2 16024 16129
16429 1 16517
16430 5 16194 16204 16208 16274 19609
16431 1 16517
16432 1 16219
16433 3 16135 16220 16293
16434 25 16021 16110 16116 16121 16126 16127 16130 16131 16174 16182 16197 16206 16213 16214 16218 16286 16294 16297 16302 16303 16306 16308 16323 16512 16517
16435 2 16219 16317
16436 2 16225 16516
16437 3 16228 16231 16234
16438 1 16241
16439 23 16025 16125 16129 16190 16201 16207 16211 16222 16223 16225 16277 16284 16285 16288 16306 16313 16314 16318 16319 16329 16513 16515 16516
16440 2 16232 16239
16441 2 16329 16337
16442 6 16230 16300 16311 16316 16333 16517
16443 3 16241 16336 16374
16444 1 16337
16445 4 16240 16338 16339 16340
16446 5 11233 15993 15994 16611 16699
16447 7 16011 16092 16546 16547 16555 16612 16613
16448 7 11310 15994 16093 16147 16580 16608 16621
16449 3 16022 16099 16104
16450 4 16053 16056 16245 16458
16451 7 16061 16074 16246 16361 16368 16408 16509
16452 2 16074 16247
16453 2 16074 16368
16454 2 8681 16047
16455 3 8682 16042 16052
16456 2 16044 16047
16457 1 16049
16458 3 16046 16053 16450
16459 5 11520 16049 16050 16051 16349
16460 1 16056
16461 2 16054 16349
16462 2 11500 16056
16463 3 11522 16055 16349
16464 1 14196
16465 1 11501
16466 2 14196 16057
16467 6 14196 14947 16058 16059 16354 28706
16468 1 16074
16469 1 16952
16470 1 28706
16471 1 16060
16472 3 16080 16368 16972
16473 3 16082 16390 16982
16474 3 16086 16090 16387
16475 6 16083 16086 16377 16858 16981 17187
16476 15 8733 8797 10800 10822 14619 14628 16391 16394 16396 16397 16480 16531 18371 18394 18395
16477 1 16523
16478 7 8772 8798 14619 16529 16532 19826 20115
16479 2 16397 18394
16480 3 14619 16476 16531
16481 5 8802 16398 16524 20043 20045
16482 4 8802 20047 20092 20117
16483 3 8526 9902 16544
16484 1 16537
16485 1 16540
16486 2 8812 16537
16487 3 9841 16526 16540
16488 3 8754 8814 16541
16489 2 9902 16538
16490 6 8791 9841 16526 16540 20005 20077
16491 3 9873 14223 17895
16492 1 14223
16493 15 8011 8020 8762 8796 9134 9140 10115 10151 14223 16392 16399 16400 16401 16406 16499
16494 26 8103 8790 8818 9214 9295 9313 10094 10105 10120 10168 16403 16404 16405 16527 18624 18628 18629 18630 18631 18633 18636 18734 19970 20006 20087 20091
16495 6 8519 9020 9043 14873 14877 14879
16496 3 9902 16544 18717
16497 2 8815 16542
16498 10 8095 8818 9174 9199 9320 10100 10123 16542 18618 18619
16499 3 10151 14223 16493
16500 3 8021 8069 10151
16501 2 16112 16353
16502 2 16012 16353
16503 6 16012 16016 16117 16122 16412 16415
16504 5 16021 16116 16121 16174 16414
16505 3 16020 16417 16418
16506 2 16124 16416
16507 2 16023 16424
16508 3 16016 16019 16186
16509 12 11298 11501 16012 16013 16017 16074 16114 16122 16128 16408 16415 16451
16510 2 16023 16272
16511 10 16018 16128 16195 16202 16272 16273 16283 16408 16424 16426
16512 11 16111 16116 16118 16120 16127 16131 16136 16410 16419 16425 16434
16513 5 16025 16129 16199 16422 16439
16514 2 16293 16408
16515 6 16201 16210 16212 16222 16285 16439
16516 4 16225 16436 16439 19615
16517 16 16021 16130 16189 16197 16206 16224 16230 16280 16281 16292 16300 16323 16429 16431 16434 16442
16518 13 16052 16095 16097 16154 16407 16582 16584 16585 16593 16601 16603 16605 16620
16519 3 16096 16099 16407
16520 1 16340
16521 5 12713 19598 19600 19639 19642
16522 6 12713 15239 16340 16375 19570 19574
16523 16 9563 9564 9565 14619 14628 15599 16393 16477 16529 18365 18642 18643 18645 19733 19825 19826
16524 11 8772 8802 10799 10822 16481 18379 18385 19978 20043 20045 20135
16525 6 9840 9841 9870 16537 16540 18579
16526 4 9841 16487 16490 16540
16527 9 8754 8790 8794 8818 16494 16541 20002 20006 20087
16528 6 9405 9561 9564 15599 18362 19824
16529 4 14619 16478 16523 19826
16530 1 10816
16531 6 8772 10800 14619 16476 16480 18378
16532 9 9804 9846 9856 10816 10824 16478 19688 19826 20115
16533 8 9652 9653 9654 9656 14622 14626 14811 19736
16534 10 7646 7647 7966 14638 14639 14864 14874 14875 14876 14877
16535 14 7966 8519 8580 9013 9014 9017 9020 9023 14870 14877 18422 18429 18442 18470
16536 1 9902
16537 6 8748 8812 9840 16484 16486 16525
16538 2 9902 16489
16539 6 7715 9843 9903 9904 16545 18727
16540 6 9841 16485 16487 16490 16525 16526
16541 3 8754 16488 16527
16542 11 8641 8642 8754 8814 8815 8818 9174 9902 15491 16497 16498
16543 4 8759 8796 9873 14223
16544 7 8507 8526 8813 9902 16483 16496 18717
16545 23 8506 8508 8535 8614 8817 9027 9832 9834 9839 9843 9863 9865 9873 9896 9899 9900 9901 9903 9904 16539 18723 18727 18730
16546 4 16447 16555 16612 16613
16547 7 16011 16092 16447 16555 16556 16578 16616
16548 2 16552 16568
16549 9 16142 16143 16559 16560 16562 16566 16568 16575 16617
16550 7 16143 16144 16553 16554 16560 16562 16566
16551 4 16162 16427 16563 16626
16552 3 16548 16568 16572
16553 3 16550 16560 16618
16554 13 16011 16143 16144 16145 16153 16156 16162 16427 16550 16562 16563 16577 16624
16555 15 11188 11189 11239 16011 16447 16546 16547 16564 16565 16569 16578 16610 16612 16613 16697
16556 3 16547 16578 16616
16557 3 16567 16578 16617
16558 4 16571 16578 16616 16617
16559 2 16549 16568
16560 6 16143 16549 16550 16553 16566 16618
16561 3 11249 16572 16576
16562 9 16549 16550 16554 16566 16568 16573 16574 16577 16626
16563 9 16153 16157 16161 16162 16551 16554 16577 16624 16626
16564 6 11239 11718 16555 16610 16694 16697
16565 4 11188 11189 16555 16567
16566 4 16549 16550 16560 16562
16567 8 11188 11189 16557 16565 16569 16570 16578 16617
16568 10 16548 16549 16552 16559 16562 16572 16574 16575 16617 16626
16569 5 11188 11239 16555 16567 16617
16570 2 16567 16617
16571 5 16011 16143 16558 16616 16617
16572 9 11190 11249 16552 16561 16568 16576 16617 16626 17724
16573 2 16562 16626
16574 3 16562 16568 16626
16575 2 16549 16568
16576 5 11190 11249 11313 16561 16572
16577 4 16554 16562 16563 16626
16578 9 11189 16547 16555 16556 16557 16558 16567 16616 16617
16579 9 9317 10200 11292 16593 16595 16599 16600 16619 16620
16580 4 16448 16591 16608 16621
16581 2 11296 16621
16582 7 8047 16052 16094 16095 16518 16593 18023
16583 2 16595 16619
16584 2 16052 16518
16585 2 16518 16620
16586 2 16595 16622
16587 4 16596 16597 16606 16625
16588 4 15994 15997 16598 16623
16589 10 15997 16163 16164 16596 16597 16598 16602 16607 16622 16625
16590 4 11233 11296 11724 16611
16591 6 11238 11296 11310 16580 16608 16621
16592 4 11241 11296 11727 16602
16593 25 8042 8046 8173 8181 8193 8194 8677 8942 9241 9253 9317 10189 10190 10192 10195 16094 16518 16579 16582 16600 16601 16615 16620 18018 18022
16594 2 11242 16622
16595 11 11292 16146 16149 16152 16579 16583 16586 16609 16619 16620 16622
16596 4 16587 16589 16622 16625
16597 5 16587 16589 16606 16607 16625
16598 6 15997 16163 16588 16589 16602 16621
16599 2 16579 16620
16600 3 16579 16593 16620
16601 3 16518 16593 16620
16602 7 11296 11727 16589 16592 16598 16621 16622
16603 2 16518 16620
16604 2 16105 16170
16605 5 16148 16150 16151 16154 16518
16606 3 16587 16597 16625
16607 7 15997 16100 16102 16164 16169 16589 16597
16608 4 11310 16448 16580 16591
16609 4 11292 11728 16595 16622
16610 3 16555 16564 16697
16611 7 11198 11227 11233 11296 16446 16590 16699
16612 3 16447 16546 16555
16613 3 16447 16546 16555
16614 6 11234 11238 11293 11296 11310 16093
16615 2 8046 16593
16616 6 16011 16547 16556 16558 16571 16578
16617 18 11190 11235 11239 11248 11306 11309 16142 16143 16549 16557 16558 16567 16568 16569 16570 16571 16572 16578
16618 3 16143 16553 16560
16619 3 16579 16583 16595
16620 10 16149 16518 16579 16585 16593 16595 16599 16600 16601 16603
16621 10 11296 11727 15994 16147 16448 16580 16581 16591 16598 16602
16622 12 11242 11296 11728 11729 11730 16586 16589 16594 16595 16596 16602 16609
16623 2 15994 16588
16624 3 16153 16554 16563
16625 5 16587 16589 16596 16597 16606
16626 42 11297 11313 11629 11631 11633 11638 11642 12509 12948 12958 12998 14972 14973 14975 15051 15057 15058 15060 15067 16427 16551 16562 16563 16568 16572 16573 16574 16577 17702 17703 17704 17705 17706 17714 17724 17725 17726 17729 17730 17731 17732 17734
16627 3 16427 17714 17733
16628 8 11202 11271 11561 14070 14084 14233 14254 16667
16629 6 11271 11553 16667 16668 16748 16777
16630 4 14218 16669 16780 16806
16631 1 16771
16632 2 11283 16672
16633 3 11216 16671 16764
16634 2 11216 16765
16635 2 11283 16749
16636 22 11168 11169 11192 11193 11212 11276 11286 11694 11695 11698 11703 14207 14210 14219 14238 14240 16745 16747 16755 16771 16772 16773
16637 1 11216
16638 2 11216 16765
16639 2 11216 16750
16640 2 11216 16750
16641 2 11283 16751
16642 2 16676 16751
16643 23 11194 11213 11218 11277 11302 11549 11700 11701 14212 14218 16670 16673 16770 16778 16779 16780 16781 16782 16783 16800 16801 16806 16807
16644 3 11219 11303 16645
16645 3 11219 16644 16675
16646 2 11218 16783
16647 4 11333 11707 16676 16751
16648 4 11217 16680 16784 16788
16649 7 11195 11196 11216 11281 11287 11571 16679
16650 2 16685 16788
16651 3 16682 16683 16808
16652 1 11221
16653 1 11287
16654 7 11199 11290 11334 11554 11572 11577 16678
16655 3 11304 16692 16786
16656 1 11287
16657 4 16684 16687 16690 16788
16658 2 11305 16794
16659 4 11304 11708 16775 16805
16660 1 11226
16661 13 11173 11219 11245 11247 11706 11721 16675 16681 16695 16774 16790 16792 16804
16662 3 11226 11711 16796
16663 6 11704 11709 16699 16788 16791 16793
16664 3 11288 11719 16794
16665 1 16798
16666 8 11197 11198 11227 11710 11716 11717 16699 16793
16667 6 11271 11553 14070 16628 16629 16744
16668 3 16629 16748 16777
16669 3 14218 16630 16762
16670 3 11277 16643 16746
16671 4 16633 16748 16752 16764
16672 4 11283 16632 16752 16769
16673 5 11244 11302 11332 16643 16677
16674 2 11303 16803
16675 3 11219 16645 16661
16676 3 16642 16647 16751
16677 3 11332 11702 16673
16678 3 11334 11707 16654
16679 1 16649
16680 2 16648 16784
16681 1 16661
16682 2 16651 16808
16683 2 16651 16808
16684 2 16657 16788
16685 3 11705 16650 16788
16686 1 16789
16687 1 16657
16688 1 11304
16689 1 16795
16690 2 16657 16788
16691 1 11304
16692 2 11304 16655
16693 3 11305 16776 16795
16694 3 11718 16564 16808
16695 4 11247 11726 16661 16795
16696 1 15993
16697 4 16011 16555 16564 16610
16698 1 15993
16699 7 11227 15993 16446 16611 16663 16666 16793
16700 4 14095 14127 14980 16721
16701 1 14980
16702 1 14980
16703 1 14980
16704 3 14127 14980 15004
16705 2 14127 16723
16706 3 14986 16722 16728
16707 1 16728
16708 1 16723
16709 1 16723
16710 1 16723
16711 2 16723 16725
16712 1 14984
16713 1 16728
16714 1 16728
16715 1 16727
16716 1 16728
16717 2 16728 16740
16718 1 16728
16719 1 16728
16720 5 14984 16727 16732 16742 17260
16721 4 14095 14933 14986 16700
16722 2 14986 16706
16723 9 11463 14127 14981 15007 16705 16708 16709 16710 16711
16724 2 11666 14984
16725 4 11665 15007 15030 16711
16726 1 14984
16727 4 14984 16715 16720 16738
16728 13 14986 14987 16706 16707 16713 16714 16716 16717 16718 16719 16740 16743 17317
16729 1 17260
16730 3 12334 12985 17325
16731 2 12030 12985
16732 7 14985 16720 16742 17260 17319 17323 17326
16733 2 12030 17540
16734 5 12335 17327 17527 17541 17613
16735 1 16818
16736 1 16818
16737 2 11360 16818
16738 2 14984 16727
16739 1 14984
16740 2 16717 16728
16741 1 14984
16742 7 14982 14983 14984 14985 15017 16720 16732
16743 5 14986 14990 15079 16728 17541
16744 3 11553 14070 16667
16745 17 11169 11216 11552 11553 11563 11564 11566 11567 14053 14068 14069 14070 14207 14208 14216 16636 16755
16746 4 11277 11299 16670 16763
16747 5 11168 11207 14210 14240 16636
16748 12 11216 11553 11556 11568 11579 11580 16629 16668 16671 16752 16764 16777
16749 2 11283 16635
16750 3 11216 16639 16640
16751 6 11283 11333 16641 16642 16647 16676
16752 6 11556 11579 16671 16672 16748 16769
16753 4 14201 14210 14218 16761
16754 3 14202 14240 16759
16755 2 16636 16745
16756 4 11231 11305 11726 16766
16757 6 11187 11231 11555 11576 11726 16766
16758 3 11240 14972 16760
16759 4 14202 14240 16754 16761
16760 5 11200 11240 11309 14972 16758
16761 6 14202 14210 14218 14240 16753 16759
16762 2 14218 16669
16763 4 11299 14217 16746 16802
16764 4 11216 16633 16671 16748
16765 3 11216 16634 16638
16766 4 11231 11726 16756 16757
16767 4 10151 11203 11206 14239
16768 4 11213 11267 14218 16780
16769 6 11283 11556 11693 16672 16752 16777
16770 4 11218 16643 16779 16801
16771 4 11169 11286 16631 16636
16772 2 11695 16636
16773 3 11192 11695 16636
16774 7 11173 11219 11303 11706 11723 16661 16787
16775 4 11286 11708 11711 16659
16776 2 11305 16693
16777 11 11166 11191 11271 11556 11693 14084 14256 16629 16668 16748 16769
16778 3 14212 16643 16800
16779 6 11218 14212 16643 16770 16800 16801
16780 6 11213 14218 16630 16643 16768 16806
16781 2 11213 16643
16782 4 11179 11549 16643 16807
16783 3 11218 16643 16646
16784 5 11217 11280 11702 16648 16680
16785 3 11239 11284 11723
16786 4 11221 11304 11703 16655
16787 3 11173 11723 16774
16788 14 11182 11183 11217 11697 11699 11704 11705 16648 16650 16657 16663 16684 16685 16690
16789 2 16686 16808
16790 3 11173 11245 16661
16791 5 11223 11282 11704 11709 16663
16792 2 11247 16661
16793 6 11223 11709 11710 16663 16666 16699
16794 5 11231 11288 11305 16658 16664
16795 5 11305 11726 16689 16693 16695
16796 2 11226 16662
16797 1 11226
16798 4 11231 11575 11719 16665
16799 2 8159 11211
16800 4 14212 16643 16778 16779
16801 3 16643 16770 16779
16802 7 11274 11299 11335 11691 14217 14239 16763
16803 4 11303 11723 16674 16808
16804 4 11222 11245 11706 16661
16805 3 11304 11708 16659
16806 3 16630 16643 16780
16807 6 11179 11194 11277 11700 16643 16782
16808 12 11175 11239 11284 11713 11718 11723 16651 16682 16683 16694 16789 16803
16809 3 11342 11373 11646
16810 11 11345 11346 11361 11374 11440 11646 14084 14092 14114 16817 16818
16811 3 11379 11654 14126
16812 1 11379
16813 1 14126
16814 2 11379 14126
16815 1 11369
16816 2 11675 15014
16817 4 11361 11646 14114 16810
16818 14 11360 11440 11441 11646 14084 14092 14105 14112 14123 14145 16735 16736 16737 16810
16819 1 11368
16820 3 17259 17293 17718
16821 9 17258 17259 17290 17295 17298 17462 17514 17715 28735
16822 2 17299 17515
16823 3 17299 17515 17764
16824 2 17464 17719
16825 9 16863 16916 16917 17154 17522 17710 17713 17755 17774
16826 2 16864 16875
16827 1 16919
16828 2 16865 16919
16829 2 16865 16921
16830 4 16865 16866 16867 16921
16831 2 12974 16892
16832 4 16892 16933 17039 17282
16833 5 16893 16934 16935 17177 17283
16834 2 17197 17283
16835 1 16897
16836 1 16897
16837 3 16898 16937 17192
16838 2 16877 16942
16839 2 16942 17202
16840 2 16880 17202
16841 1 16880
16842 1 16881
16843 1 16883
16844 2 16887 17034
16845 1 16891
16846 1 17035
16847 2 16890 17036
16848 3 17720 28711 28733
16849 4 16857 17087 17088 28719
16850 3 16854 16858 17230
16851 6 16858 17057 17058 17089 17091 17212
16852 2 17093 17097
16853 3 16860 17094 17099
16854 3 16850 16858 17086
16855 2 17078 28730
16856 1 17087
16857 6 16849 17087 17088 17153 17185 17189
16858 32 16083 16086 16377 16387 16475 16850 16851 16854 17052 17055 17056 17057 17078 17083 17084 17085 17086 17087 17088 17089 17090 17091 17153 17184 17185 17186 17187 17188 17189 17212 17230 28730
16859 1 17234
16860 11 16853 17058 17059 17089 17094 17099 17212 17231 17232 17233 17234
16861 3 12596 17010 17713
16862 3 12596 17013 17713
16863 4 16825 16917 17014 17154
16864 4 16826 16918 17015 17154
16865 15 16828 16829 16830 16919 16920 16921 17016 17315 17316 17523 17537 17538 17539 17842 17846
16866 1 16830
16867 3 16830 17539 17842
16868 4 12896 12897 16904 16906
16869 2 12896 17022
16870 2 16904 17598
16871 2 17024 17598
16872 2 17259 17290
16873 6 17023 17024 17287 17289 17292 28607
16874 1 17259
16875 1 16826
16876 3 15147 16930 17183
16877 2 16838 16942
16878 2 17172 17203
16879 2 16943 17203
16880 3 16840 16841 17202
16881 2 16842 17205
16882 4 17203 17204 17207 17253
16883 1 16843
16884 3 16945 17207 17253
16885 6 17029 17031 17032 17033 17173 17201
16886 1 16945
16887 3 16844 17034 17206
16888 1 16945
16889 1 17036
16890 2 16847 17036
16891 1 16845
16892 6 12974 16831 16832 16931 16933 17037
16893 3 16833 16935 17283
16894 2 17198 17254
16895 1 17254
16896 2 16936 17254
16897 6 16835 16836 16936 17192 17247 17254
16898 4 12098 16837 16912 16937
16899 4 12064 17151 17521 17571
16900 5 12182 12901 12926 16905 17521
16901 2 12186 16905
16902 1 17022
16903 12 12018 12086 12890 12891 12896 12903 12904 12910 13160 13161 13164 17022
16904 8 12085 12897 13165 16868 16870 17022 17024 17598
16905 10 12066 12182 12186 12374 12901 13192 13193 16900 16901 17521
16906 3 12896 16868 17022
16907 5 17069 17070 17072 17217 17222
16908 3 17080 17224 17228
16909 6 17070 17073 17075 17221 17225 28726
16910 1 17083
16911 5 15226 16988 17060 17092 17102
16912 6 12098 15091 15271 16898 17443 17444
16913 1 20228
16914 4 17119 17446 17448 20228
16915 8 15204 15261 16951 17065 17133 17134 17137 17139
16916 8 12686 16825 17713 17776 17777 17779 17780 17782
16917 6 16825 16863 17014 17522 17713 17757
16918 2 16864 17154
16919 4 16827 16828 16865 17016
16920 1 16865
16921 3 16829 16830 16865
16922 27 17286 17288 17411 17412 17413 17414 17415 17416 17417 17418 17419 17420 17421 17422 17423 17424 17425 17426 17427 17428 17429 17430 17431 17598 17599 17737 17827
16923 7 17024 17598 17736 17737 17762 17763 17827
16924 1 17439
16925 1 17830
16926 1 17815
16927 1 17607
16928 3 17435 17437 17607
16929 2 15300 17051
16930 3 15147 16876 17049
16931 3 12974 16892 17037
16932 2 17208 17246
16933 5 16832 16892 17037 17039 17175
16934 2 16833 17177
16935 10 15154 16833 16893 17040 17041 17042 17177 17178 17179 17283
16936 3 16896 16897 17254
16937 8 12098 12455 12498 12571 16837 16898 17192 17285
16938 20 8369 10546 11755 11796 11797 11799 11888 11920 11989 11993 12269 12279 12349 12355 12423 13013 13015 13019 13094 17753
16939 1 11922
16940 9 11922 11923 12294 12297 12355 13034 13098 13100 17248
16941 1 12297
16942 17 12061 12297 12298 12303 12304 12310 12361 12430 12466 13036 13040 13046 16838 16839 16877 17202 17249
16943 1 16879
16944 1 17208
16945 6 12135 16884 16886 16888 17209 17246
16946 5 12696 15195 17107 17108 17241
16947 2 12445 15199
16948 5 12445 15198 17111 17112 17242
16949 6 13376 17063 17117 17242 17243 17244
16950 1 13341
16951 11 15204 15252 16915 17064 17065 17066 17125 17127 17129 17130 17133
16952 1 16469
16953 1 16074
16954 1 28706
16955 1 17074
16956 1 16074
16957 2 16364 28706
16958 2 17080 17224
16959 1 16074
16960 1 17076
16961 2 17076 17083
16962 1 17083
16963 1 17083
16964 2 17080 17228
16965 1 17076
16966 1 17083
16967 4 17083 28718 28727 28729
16968 2 17077 17083
16969 1 17080
16970 1 17083
16971 2 16078 16080
16972 4 16077 16080 16367 16472
16973 4 16076 16079 16390 17081
16974 1 17083
16975 1 17083
16976 1 17083
16977 2 17076 17083
16978 1 16080
16979 1 16089
16980 1 16082
16981 4 16081 16086 16377 16475
16982 3 16082 16390 16473
16983 1 16373
16984 1 16089
16985 1 16091
16986 1 16091
16987 1 17097
16988 1 16911
16989 2 17095 17097
16990 1 17096
16991 1 17235
16992 3 17102 17105 17237
16993 2 17105 17238
16994 1 17115
16995 2 17119 20228
16996 1 17123
16997 2 17119 17446
16998 1 17123
16999 3 11764 15264 17451
17000 1 17451
17001 2 17452 17456
17002 4 15202 17123 17126 17132
17003 9 15072 15265 15273 17120 17122 17145 17449 17453 17457
17004 2 17124 17145
17005 1 17145
17006 3 17132 17136 17142
17007 1 17142
17008 3 17143 17144 17146
17009 5 17145 17783 17785 17786 17787
17010 2 12596 16861
17011 6 12595 12649 17616 17617 17713 17787
17012 4 12595 12596 13257 17713
17013 4 12535 12596 16862 17713
17014 8 12535 12596 13258 16863 16917 17154 17256 17713
17015 5 16864 17154 17256 17467 17634
17016 4 16865 16919 17315 17634
17017 4 17315 17634 17842 17846
17018 4 12147 17467 17634 17841
17019 2 17315 17523
17020 2 12064 17151
17021 3 12064 12065 17152
17022 12 12018 12084 12085 12665 12896 13162 16869 16902 16903 16904 16906 17597
17023 4 16873 17289 28607 28721
17024 15 12895 12896 12897 12916 13167 13168 16871 16873 16904 16923 17287 17292 17598 17762 28607
17025 5 11805 11929 11931 17279 17409
17026 1 11929
17027 3 11929 15126 17162
17028 19 12058 12143 12364 12365 17156 17157 17158 17159 17161 17163 17199 17200 17202 17278 17403 17408 17507 17508 17637
17029 2 16885 17172
17030 4 15089 17164 17172 17203
17031 3 16885 17201 17207
17032 2 16885 17173
17033 1 16885
17034 6 16844 16887 17163 17168 17205 17206
17035 1 16846
17036 3 16847 16889 16890
17037 12 12974 13057 13058 13182 15092 16892 16931 16933 17174 17175 17196 17280
17038 2 17175 17282
17039 4 16832 16933 17175 17282
17040 5 15154 16935 17176 17177 17282
17041 4 15154 16935 17178 17179
17042 5 15154 16935 17179 17180 17283
17043 1 28735
17044 1 28495
17045 2 15231 28455
17046 1 28495
17047 2 17183 28495
17048 3 13829 13835 15300
17049 3 15147 16930 19585
17050 2 18809 19584
17051 6 13831 13832 13833 15300 15301 16929
17052 2 16858 17083
17053 1 28716
17054 2 17087 28717
17055 1 16858
17056 1 16858
17057 3 16851 16858 17089
17058 4 16851 16860 17089 17212
17059 4 16387 16860 17089 17094
17060 2 16911 17102
17061 8 12770 12799 15191 15192 15193 17104 17105 17239
17062 4 12445 15197 15198 17241
17063 3 12445 13376 16949
17064 2 13342 16951
17065 2 16915 16951
17066 1 16951
17067 2 16064 17218
17068 3 16064 17216 17218
17069 2 16907 17217
17070 4 16907 16909 17217 17221
17071 1 17220
17072 1 16907
17073 2 16909 17221
17074 5 16955 17216 17218 17220 17223
17075 3 16909 17221 17225
17076 4 16960 16961 16965 16977
17077 1 16968
17078 3 16855 16858 28730
17079 1 28715
17080 9 16070 16072 16073 16908 16958 16964 16969 17224 17228
17081 3 16076 16390 16973
17082 1 28717
17083 15 16377 16858 16910 16961 16962 16963 16966 16967 16968 16970 16974 16975 16976 16977 17052
17084 1 16858
17085 3 16086 16387 16858
17086 2 16854 16858
17087 9 16849 16856 16857 16858 17054 17153 28717 28719 28730
17088 6 16849 16857 16858 17189 17230 28719
17089 10 16384 16385 16386 16387 16851 16858 16860 17057 17058 17059
17090 1 16858
17091 2 16851 16858
17092 2 15226 16911
17093 1 16852
17094 5 16090 16387 16853 16860 17059
17095 1 16989
17096 1 16990
17097 4 16090 16852 16987 16989
17098 1 17235
17099 3 16853 16860 17236
17100 1 17235
17101 1 12835
17102 6 12835 15224 15226 16911 16992 17060
17103 2 12837 19571
17104 1 17061
17105 17 12836 12837 12882 13354 13355 13356 13357 13358 15191 16992 16993 17061 17237 17238 17239 19571 19572
17106 2 12710 15193
17107 2 15194 16946
17108 2 15195 16946
17109 4 12315 15196 15197 17241
17110 2 15197 17241
17111 1 16948
17112 4 12445 13376 16948 17242
17113 1 15152
17114 2 15152 15271
17115 4 15200 15271 16994 17444
17116 2 12445 13377
17117 4 12443 16949 17243 17244
17118 5 12317 12445 13336 13337 17244
17119 5 16914 16995 16997 17446 20228
17120 4 15249 15273 17003 17449
17121 1 15152
17122 3 15205 15273 17003
17123 6 15152 15202 15253 16996 16998 17002
17124 1 17004
17125 1 16951
17126 2 15202 17002
17127 2 15204 16951
17128 1 15257
17129 1 16951
17130 1 16951
17131 1 15203
17132 2 17002 17006
17133 3 15204 16915 16951
17134 2 15204 16915
17135 1 15204
17136 1 17006
17137 1 16915
17138 1 15261
17139 2 15261 16915
17140 2 15261 15269
17141 2 15261 15269
17142 3 15269 17006 17007
17143 2 15261 17008
17144 1 17008
17145 14 12216 12450 12704 12899 12917 12935 13343 13344 15205 17003 17004 17005 17009 17786
17146 1 17008
17147 1 15210
17148 2 15210 17813
17149 4 13245 15213 15214 17812
17150 2 13245 15214
17151 5 12064 16899 17020 17571 17574
17152 4 12064 12065 12663 17021
17153 3 16857 16858 17087
17154 7 16825 16863 16864 16918 17014 17015 17256
17155 3 12299 12378 13041
17156 1 17028
17157 3 12365 12378 17028
17158 1 17028
17159 2 17028 17200
17160 4 12058 12379 17202 17250
17161 3 17028 17200 17202
17162 3 15089 15126 17027
17163 3 17028 17034 17202
17164 1 17030
17165 1 12310
17166 1 17202
17167 1 17202
17168 2 17034 17205
17169 3 12310 17202 17251
17170 1 17202
17171 1 17205
17172 4 16878 17029 17030 17203
17173 2 16885 17032
17174 3 13057 13182 17037
17175 7 15092 15153 16933 17037 17038 17039 17282
17176 4 14324 15154 17040 17282
17177 5 16833 16934 16935 17040 17282
17178 2 16935 17041
17179 4 15154 16935 17041 17042
17180 3 15154 17042 17283
17181 3 17197 17254 17283
17182 5 12138 12410 12492 12570 17283
17183 6 11942 15147 16876 17047 28495 28498
17184 2 16858 17188
17185 3 16857 16858 17189
17186 1 16858
17187 3 16083 16475 16858
17188 2 16858 17184
17189 4 16857 16858 17088 17185
17190 3 17194 17559 28745
17191 7 12900 17194 17519 17520 28598 28613 28742
17192 9 12096 12097 12332 12454 12498 16837 16897 16937 17247
17193 2 17520 17567
17194 7 17190 17191 17519 17520 17531 17565 28745
17195 9 12156 12925 17245 17564 17566 17568 17569 17571 28745
17196 7 12092 12329 12974 13057 13182 17037 17648
17197 3 16834 17181 17283
17198 2 16894 17254
17199 5 12057 12058 12365 12379 17028
17200 3 17028 17159 17161
17201 2 16885 17031
17202 30 11773 11806 11899 11930 12058 12059 12060 12179 12180 12308 12310 12381 12430 12431 13051 13102 16839 16840 16880 16942 17028 17160 17161 17163 17166 17167 17169 17170 17250 17251
17203 11 11931 12309 15089 15122 15127 15128 16878 16879 16882 17030 17172
17204 3 12311 16882 17253
17205 4 16881 17034 17168 17171
17206 2 16887 17034
17207 3 16882 16884 17031
17208 3 16932 16944 17246
17209 2 16945 17246
17210 3 17255 17665 17847
17211 2 17229 28719
17212 5 16851 16858 16860 17058 17231
17213 1 28724
17214 1 28724
17215 1 28724
17216 2 17068 17074
17217 3 16907 17069 17070
17218 5 16064 17067 17068 17074 28724
17219 1 28725
17220 2 17071 17074
17221 5 16909 17070 17073 17075 28725
17222 1 16907
17223 1 17074
17224 3 16908 16958 17080
17225 5 16909 17075 28722 28725 28726
17226 1 28726
17227 1 28726
17228 3 16908 16964 17080
17229 2 17211 28719
17230 4 16850 16858 17088 28719
17231 2 16860 17212
17232 1 16860
17233 1 16860
17234 2 16859 16860
17235 3 16991 17098 17100
17236 1 17099
17237 2 16992 17105
17238 2 16993 17105
17239 2 17061 17105
17240 1 12710
17241 7 12696 15196 15197 16946 17062 17109 17110
17242 4 13376 16948 16949 17112
17243 2 16949 17117
17244 4 12445 16949 17117 17118
17245 5 12156 17195 17521 17569 17570
17246 7 12094 12135 12372 16932 16945 17208 17209
17247 5 12095 12332 16897 17192 17254
17248 5 12297 12428 13034 16940 17773
17249 4 12303 12466 13044 16942
17250 5 12379 12381 13050 17160 17202
17251 3 12310 17169 17202
17252 4 11856 12181 12226 12974
17253 5 12135 12311 16882 16884 17204
17254 10 12095 16894 16895 16896 16897 16936 17181 17198 17247 17283
17255 3 17210 17842 17847
17256 9 12147 12538 13258 17014 17015 17154 17465 17466 17467
17257 7 12156 12677 12925 17314 17521 17532 17568
17258 3 16821 17295 28735
17259 10 16820 16821 16872 16874 17290 17293 17462 17715 17718 17763
17260 3 16720 16729 16732
17261 4 12413 15097 17334 17337
17262 3 12473 15084 17337
17263 3 17338 17341 17527
17264 2 15082 17341
17265 2 11868 15082
17266 2 11868 17527
17267 6 11913 12253 12386 15083 15084 17347
17268 5 11913 12108 12459 17348 17349
17269 3 17351 17468 17527
17270 2 11913 17350
17271 2 17355 17527
17272 1 11913
17273 1 17471
17274 6 17358 17470 17472 17475 17548 17669
17275 3 17381 17388 17496
17276 28 15085 17351 17352 17353 17356 17360 17361 17362 17364 17368 17373 17379 17384 17385 17387 17389 17393 17473 17478 17479 17488 17492 17497 17500 17501 17527 17543 17552
17277 12 12306 12727 12728 15086 17382 17383 17405 17512 17548 17553 17615 17661
17278 12 17028 17393 17394 17398 17402 17406 17408 17501 17506 17508 17509 17637
17279 40 12132 12305 17025 17359 17366 17367 17370 17374 17378 17380 17390 17391 17395 17396 17399 17400 17401 17404 17409 17471 17474 17485 17487 17489 17491 17493 17494 17495 17496 17498 17499 17502 17503 17504 17505 17510 17512 17548 17549 17550
17280 13 11960 12222 12229 12406 12487 12489 13057 13058 13108 14309 14310 14312 17037
17281 5 12229 12523 12588 13186 14334
17282 9 14324 15153 16832 17038 17039 17040 17175 17176 17177
17283 23 12095 12138 12332 12492 12493 12494 12495 12569 12570 12571 15133 15154 15169 16833 16834 16893 16935 17042 17180 17181 17182 17197 17254
17284 4 12410 12495 12496 12571
17285 5 12098 12441 12455 12571 16937
17286 3 16922 17411 17598
17287 2 16873 17024
17288 4 16922 17416 17424 17599
17289 2 16873 17023
17290 5 16821 16872 17259 17462 28735
17291 1 28710
17292 3 16873 17024 17762
17293 4 16820 17259 17718 17763
17294 1 28710
17295 4 16821 17258 28707 28735
17296 2 17513 28710
17297 2 17439 17600
17298 4 16821 17514 17715 17760
17299 3 16822 16823 17515
17300 2 17439 17607
17301 1 17437
17302 7 17436 17437 17438 17442 17607 17608 17748
17303 1 17518
17304 1 17518
17305 1 17518
17306 3 11807 11901 15219
17307 3 11901 13253 15209
17308 4 13252 13253 15211 15212
17309 4 13240 13241 13253 15210
17310 2 13241 15210
17311 1 13242
17312 1 13242
17313 3 15075 17459 17516
17314 3 12677 17257 17532
17315 7 16865 17016 17017 17019 17523 17634 17846
17316 3 16865 17537 17842
17317 1 16728
17318 4 14985 15018 15019 15160
17319 2 14985 16732
17320 1 17650
17321 1 17659
17322 6 12977 15148 15168 17649 17650 17651
17323 5 14985 15019 15160 16732 17659
17324 4 12334 12411 12991 15164
17325 2 12334 16730
17326 1 16732
17327 3 16734 17527 17541
17328 2 12031 15079
17329 3 15096 17540 17612
17330 2 15079 17527
17331 2 12335 17527
17332 1 17527
17333 3 12031 15085 17527
17334 5 12413 15096 15134 17261 17525
17335 2 15085 17527
17336 2 12473 15098
17337 4 12473 15097 17261 17262
17338 2 17263 17527
17339 3 15085 17468 17527
17340 2 12335 17527
17341 4 15082 17263 17264 17527
17342 1 17527
17343 3 12253 12385 15084
17344 1 17527
17345 1 17527
17346 1 17527
17347 2 11913 17267
17348 2 11913 17268
17349 6 12459 15084 17268 17469 17471 17548
17350 2 11913 17270
17351 3 17269 17276 17527
17352 1 17276
17353 1 17276
17354 1 17548
17355 2 17271 17527
17356 2 17276 17527
17357 1 17527
17358 9 15123 15142 17274 17469 17470 17472 17542 17614 17669
17359 1 17279
17360 3 17276 17526 17527
17361 2 15085 17276
17362 4 17276 17478 17527 17543
17363 6 11885 12727 12828 17475 17548 17660
17364 2 17276 17478
17365 2 17478 17543
17366 1 17279
17367 1 17279
17368 1 17276
17369 3 17482 17484 17548
17370 3 17279 17485 17548
17371 3 17484 17486 17548
17372 3 12420 17483 17548
17373 1 17276
17374 2 17279 17549
17375 2 17496 17548
17376 2 17512 17548
17377 3 12123 17680 17684
17378 1 17279
17379 1 17276
17380 1 17279
17381 1 17275
17382 2 17277 17512
17383 6 13026 17277 17546 17547 17615 17661
17384 3 17276 17492 17552
17385 1 17276
17386 2 17496 17550
17387 1 17276
17388 4 17275 17496 17512 17548
17389 1 17276
17390 1 17279
17391 3 17279 17502 17503
17392 1 17504
17393 3 17276 17278 17501
17394 1 17278
17395 2 17279 17505
17396 2 17279 17503
17397 1 17512
17398 1 17278
17399 2 17279 17512
17400 1 17279
17401 5 17279 17496 17504 17512 17550
17402 2 17278 17508
17403 2 17028 17508
17404 2 17279 17512
17405 2 17277 17512
17406 1 17278
17407 4 12306 15088 17511 17512
17408 3 17028 17278 17509
17409 5 11931 12305 13103 17025 17279
17410 6 12083 12204 12205 12395 13163 17598
17411 2 16922 17286
17412 2 16922 17598
17413 1 16922
17414 1 16922
17415 1 16922
17416 2 16922 17288
17417 1 16922
17418 1 16922
17419 1 16922
17420 1 16922
17421 1 16922
17422 1 16922
17423 1 16922
17424 2 16922 17288
17425 1 16922
17426 1 16922
17427 1 16922
17428 1 16922
17429 1 16922
17430 1 16922
17431 1 16922
17432 2 17814 17833
17433 1 17607
17434 1 17607
17435 1 16928
17436 1 17302
17437 4 16928 17301 17302 17607
17438 1 17302
17439 20 16924 17297 17300 17600 17601 17602 17603 17604 17605 17606 17607 17741 17788 17794 17804 17815 17830 17831 17832 17833
17440 1 17807
17441 1 17807
17442 7 17302 17611 17748 17750 17751 17752 17807
17443 4 15091 15201 15271 16912
17444 3 15271 16912 17115
17445 1 20228
17446 3 16914 16997 17119
17447 3 11763 17534 17536
17448 1 16914
17449 7 12136 15071 15249 15251 15265 17003 17120
17450 4 11745 11763 17528 17529
17451 4 11764 15264 16999 17000
17452 1 17001
17453 2 15072 17003
17454 3 11747 13230 17530
17455 1 13230
17456 2 13230 17001
17457 2 15072 17003
17458 1 11747
17459 2 17313 17516
17460 1 11771
17461 2 11771 17517
17462 3 16821 17259 17290
17463 4 17716 17717 17764 28710
17464 7 16824 17716 17719 17720 17764 28710 28739
17465 2 12147 17256
17466 2 12147 17256
17467 7 12147 12541 17015 17018 17256 17634 17841
17468 4 15085 17269 17339 17527
17469 7 12042 15084 15142 17349 17358 17548 17614
17470 4 17274 17358 17548 17614
17471 4 17273 17279 17349 17548
17472 3 17274 17358 17669
17473 2 17276 17527
17474 2 17279 17548
17475 5 17274 17363 17548 17660 17669
17476 2 11986 17548
17477 1 17548
17478 5 17276 17362 17364 17365 17543
17479 3 15085 17276 17552
17480 1 17548
17481 1 17548
17482 2 17369 17548
17483 3 12828 17372 17548
17484 3 17369 17371 17548
17485 3 17279 17370 17548
17486 2 17371 17548
17487 2 17279 17549
17488 2 17276 17552
17489 2 17279 17549
17490 1 17548
17491 2 17279 17549
17492 3 17276 17384 17552
17493 1 17279
17494 2 17279 17549
17495 1 17279
17496 8 17275 17279 17375 17386 17388 17401 17548 17550
17497 2 17276 17552
17498 2 17279 17549
17499 1 17279
17500 2 17276 17552
17501 5 17276 17278 17393 17552 17637
17502 2 17279 17391
17503 3 17279 17391 17396
17504 4 17279 17392 17401 17550
17505 2 17279 17395
17506 2 17278 17637
17507 2 12364 17028
17508 5 17028 17278 17402 17403 17637
17509 2 17278 17408
17510 4 11927 13055 15146 17279
17511 2 15088 17407
17512 18 12367 15087 15088 15121 15124 15143 17277 17279 17376 17382 17388 17397 17399 17401 17404 17405 17407 17548
17513 2 17296 28710
17514 3 16821 17298 17715
17515 6 16822 16823 17299 17717 17764 28710
17516 2 17313 17459
17517 5 11771 15075 15076 15206 17461
17518 7 11771 13223 13231 15207 17303 17304 17305
17519 10 17191 17194 17555 17556 17557 17560 17561 17562 28598 28745
17520 8 12677 12900 17191 17193 17194 17532 17567 28613
17521 18 12064 12066 12156 12159 12182 12188 12677 12901 12926 13149 13192 16899 16900 16905 17245 17257 17533 17571
17522 4 16825 16917 17713 17755
17523 4 16865 17019 17315 17846
17524 2 12335 17613
17525 4 12166 15096 17334 17612
17526 1 17360
17527 35 11868 12031 12037 12335 15079 15085 16734 17263 17266 17269 17271 17276 17327 17330 17331 17332 17333 17335 17338 17339 17340 17341 17342 17344 17345 17346 17351 17355 17356 17357 17360 17362 17468 17473 17541
17528 2 11763 17450
17529 4 11745 11765 13230 17450
17530 2 11747 17454
17531 2 17194 28745
17532 5 12677 17257 17314 17520 17568
17533 8 12066 12158 12373 12677 17521 28602 28615 28616
17534 1 17447
17535 1 11763
17536 2 11763 17447
17537 5 16865 17316 17636 17842 17846
17538 2 16865 17842
17539 3 16865 16867 17842
17540 5 12030 15096 16733 17329 17612
17541 5 15079 16734 16743 17327 17527
17542 5 12339 15123 15141 17358 17669
17543 4 17276 17362 17365 17478
17544 2 12966 17679
17545 5 12803 12816 12817 13028 19596
17546 15 12276 12345 12729 12762 12830 12887 13014 13023 13026 15110 15112 15113 17383 17661 17701
17547 6 12764 13026 15116 15120 17383 17615
17548 35 11986 12420 12727 12828 17274 17277 17279 17349 17354 17363 17369 17370 17371 17372 17375 17376 17388 17469 17470 17471 17474 17475 17476 17477 17480 17481 17482 17483 17484 17485 17486 17490 17496 17512 17614
17549 7 17279 17374 17487 17489 17491 17494 17498
17550 5 17279 17386 17401 17496 17504
17551 21 12019 12088 12123 12177 12220 12352 12377 12966 12969 12970 13027 17663 17679 17682 17684 17686 17694 17697 17698 19573 19595
17552 25 12117 12120 12128 12176 12301 12347 13017 13032 13033 13035 13096 15085 15109 15118 17276 17384 17479 17488 17492 17497 17500 17501 17637 17645 17646
17553 4 12471 15086 17277 17615
17554 1 28743
17555 1 17519
17556 1 17519
17557 1 17519
17558 1 28742
17559 1 17190
17560 1 17519
17561 2 17519 28598
17562 1 17519
17563 2 28598 28742
17564 1 17195
17565 1 17194
17566 1 17195
17567 2 17193 17520
17568 4 12925 17195 17257 17532
17569 2 17195 17245
17570 1 17245
17571 4 16899 17151 17195 17521
17572 1 12063
17573 1 17638
17574 3 12063 17151 17638
17575 2 12063 12183
17576 2 12183 17638
17577 1 17638
17578 9 12065 12183 12185 12187 12389 13123 13125 13126 17638
17579 2 12187 13129
17580 1 13131
17581 2 12390 13131
17582 1 17638
17583 1 17638
17584 1 17638
17585 1 12189
17586 4 12189 12391 12392 13135
17587 6 12067 12187 12189 12392 13136 17638
17588 1 12392
17589 2 12392 17640
17590 1 12392
17591 1 12392
17592 1 17641
17593 3 12079 12194 17641
17594 4 12079 12193 12194 13143
17595 3 12079 12196 13145
17596 4 12084 12197 13146 13155
17597 4 12081 12084 12085 17022
17598 14 12082 12203 12395 16870 16871 16904 16922 16923 17024 17286 17410 17412 17644 17827
17599 2 16922 17288
17600 2 17297 17439
17601 2 17439 17828
17602 1 17439
17603 1 17439
17604 1 17439
17605 1 17439
17606 1 17439
17607 11 16927 16928 17300 17302 17433 17434 17437 17439 17746 17747 17804
17608 1 17302
17609 1 17749
17610 1 17807
17611 3 17442 17807 17808
17612 5 12166 15096 17329 17525 17540
17613 3 12335 16734 17524
17614 4 17358 17469 17470 17548
17615 6 12471 15120 17277 17383 17547 17553
17616 4 12649 12705 17011 17787
17617 4 12595 12649 12705 17011
17618 3 12536 17619 17654
17619 5 12536 12537 12706 17618 17654
17620 2 13113 17658
17621 3 12537 12706 17657
17622 3 12650 12706 17657
17623 2 12706 17657
17624 3 13113 13120 17657
17625 1 13113
17626 2 13113 17658
17627 4 12651 12938 13321 17657
17628 1 13121
17629 2 13117 13121
17630 1 13121
17631 1 13122
17632 4 12601 12603 13118 17657
17633 8 12602 12603 12810 12845 12846 12849 12888 17657
17634 9 12147 17015 17016 17017 17018 17315 17467 17842 17844
17635 9 12604 12653 12810 12848 12849 12861 12888 13244 17657
17636 3 17537 17842 17846
17637 10 12143 13039 17028 17278 17501 17506 17508 17552 17646 17647
17638 11 12063 12183 17573 17574 17576 17577 17578 17582 17583 17584 17587
17639 2 12392 13138
17640 3 12014 12392 17589
17641 3 12014 17592 17593
17642 2 12079 13144
17643 4 12079 12394 12395 12474
17644 2 12395 17598
17645 3 12120 15118 17552
17646 5 12364 13035 13039 17552 17637
17647 3 12143 13039 17637
17648 12 12092 12134 12306 12328 12329 12467 12973 13053 13057 15086 15088 17196
17649 2 15168 17322
17650 12 11674 11675 12975 15015 15016 15022 15148 15159 15161 15171 17320 17322
17651 3 12997 15168 17322
17652 2 12997 15168
17653 14 12216 12217 12450 12593 12594 12648 12650 12704 12706 13110 13111 13112 13120 17809
17654 4 12536 12537 17618 17619
17655 1 12537
17656 1 13122
17657 47 12148 12537 12597 12598 12600 12601 12603 12604 12650 12653 12688 12698 12699 12706 12708 12712 12845 12848 12888 12920 12921 12923 12938 12939 12940 13113 13118 13120 13121 13243 13247 13261 13262 13266 13267 13322 13323 17621 17622 17623 17624 17627 17632 17633 17635 17810 17811
17658 38 12146 12219 12469 12512 12513 12540 12599 12603 12606 12607 12811 12847 12850 12851 12852 12855 12949 12959 13113 13114 13115 13116 13117 13119 13120 13121 13122 13226 13260 13263 13265 15078 15208 15210 15215 17620 17626 17813
17659 4 15160 15182 17321 17323
17660 17 11825 12728 12753 12813 12824 12840 13007 13010 17363 17475 17666 17668 17669 17671 17673 17689 17690
17661 11 11917 12728 12825 12881 17277 17383 17546 17674 17691 17692 17701
17662 6 12760 12761 12827 12887 12966 17678
17663 3 17551 17684 17694
17664 3 12761 12842 17681
17665 22 12021 12062 12153 12154 12155 12798 13196 13199 13205 13209 13210 13214 13220 13284 13285 17210 17840 17847 17848 17849 17850 17851
17666 6 12752 12753 12840 13004 17660 17689
17667 2 11917 12841
17668 4 11852 12840 13007 17660
17669 14 11981 11983 11984 15103 15123 15129 15130 17274 17358 17472 17475 17542 17660 17689
17670 3 11917 12725 12841
17671 6 11853 12824 13007 13010 17660 17690
17672 7 12739 12823 12827 12841 12887 12965 17676
17673 7 11825 11879 11985 12728 12840 13010 17660
17674 11 11792 11794 11876 11884 11917 11982 12260 12825 13005 17661 17691
17675 5 12739 12758 12759 12829 12966
17676 4 11917 12841 12887 17672
17677 2 12759 12966
17678 3 12760 12966 17662
17679 5 12966 13027 17544 17551 17699
17680 3 12123 12377 17377
17681 4 12141 12842 12966 17664
17682 3 13027 17551 17697
17683 5 12126 12966 13027 17695 17696
17684 8 12123 12177 12220 12377 13028 17377 17551 17663
17685 3 12126 12141 12842
17686 5 12177 12353 12968 12969 17551
17687 2 12966 17695
17688 1 13028
17689 5 11983 12752 17660 17666 17669
17690 3 13007 17660 17671
17691 3 11917 17661 17674
17692 4 11917 13089 17661 17701
17693 3 12966 13228 19595
17694 4 12220 13091 17551 17663
17695 5 12966 13027 17683 17687 17699
17696 4 12126 12141 12966 17683
17697 5 12288 12970 13027 17551 17682
17698 3 12088 12352 17551
17699 4 12966 13027 17679 17695
17700 2 12752 13004
17701 6 12462 13014 13089 17546 17661 17692
17702 2 16626 17724
17703 3 16626 17729 17731
17704 4 16626 17725 17732 17734
17705 5 11780 16626 17726 17728 17731
17706 3 12509 16626 17714
17707 2 16427 17733
17708 1 17776
17709 1 17776
17710 2 16825 17755
17711 1 17776
17712 1 17780
17713 23 12596 12686 16825 16861 16862 16916 16917 17011 17012 17013 17014 17522 17755 17756 17757 17758 17759 17774 17775 17776 17778 17784 17787
17714 12 12509 12574 12589 12976 12980 12981 12982 16427 16626 16627 17706 17733
17715 6 16821 17259 17298 17514 17760 17763
17716 4 17463 17464 17764 28710
17717 4 17463 17515 17764 28710
17718 4 16820 17259 17293 17763
17719 7 16824 17464 17720 28709 28710 28737 28739
17720 9 16848 17464 17719 17764 28711 28733 28737 28739 28740
17721 2 17764 28734
17722 4 17767 17768 17806 28714
17723 3 17768 28714 28750
17724 5 11249 11313 16572 16626 17702
17725 2 16626 17704
17726 5 11780 15051 15061 16626 17705
17727 3 12998 17731 17735
17728 7 11780 12572 12643 12666 12998 17705 17731
17729 2 16626 17703
17730 2 12509 16626
17731 7 12998 16626 17703 17705 17727 17728 17735
17732 9 12508 12509 12575 12635 12979 12998 16626 17704 17734
17733 10 12589 12608 12961 12982 16172 16427 16627 17707 17714 19586
17734 3 16626 17704 17732
17735 3 12998 17727 17731
17736 1 16923
17737 6 16922 16923 17763 17797 17798 17829
17738 1 17797
17739 2 17793 17799
17740 2 17798 17799
17741 3 17439 17797 17804
17742 1 17800
17743 1 17804
17744 1 17803
17745 2 17802 17804
17746 1 17607
17747 1 17607
17748 2 17302 17442
17749 1 17609
17750 5 17442 17800 17802 17803 17804
17751 1 17442
17752 1 17442
17753 75 11790 11791 11795 11799 11800 11824 11878 11881 11882 11883 11886 11912 11915 11919 11921 11966 11968 11988 11989 11990 11992 11993 12047 12051 12112 12116 12172 12173 12262 12263 12264 12265 12267 12268 12270 12271 12272 12273 12274 12280 12283 12343 12344 12346 12348 12349 12418 12419 12422 12423 12424 12463 12464 13003 13016 13020 13071 13077 13079 13080 13081 13082 13084 13085 13086 13088 13090 13095 15111 15114 15119 16938 17770 17771 17772
17754 11 11973 12122 12125 12175 12301 12354 13021 13037 15115 15117 15139
17755 5 16825 17522 17710 17713 17774
17756 1 17713
17757 2 16917 17713
17758 2 17713 17787
17759 1 17713
17760 4 14380 17298 17715 17763
17761 3 17764 28734 28749
17762 3 16923 17024 17292
17763 10 14380 16923 17259 17293 17715 17718 17737 17760 17789 17791
17764 19 16823 17463 17464 17515 17716 17717 17720 17721 17761 17765 17769 17790 17792 17795 17796 17805 28733 28734 28749
17765 3 17764 17805 28749
17766 2 17805 28749
17767 5 17722 17805 17806 28714 28749
17768 5 17722 17723 17769 17806 28714
17769 4 17764 17768 17801 17807
17770 5 11871 11912 13069 13071 17753
17771 9 11791 11875 11965 11966 11969 12271 13071 13075 17753
17772 3 11883 12268 17753
17773 7 12294 12426 12428 13034 13037 13099 17248
17774 3 16825 17713 17755
17775 1 17713
17776 5 16916 17708 17709 17711 17713
17777 2 12686 16916
17778 1 17713
17779 2 12683 16916
17780 2 16916 17712
17781 1 12684
17782 2 12686 16916
17783 1 17009
17784 2 12686 17713
17785 1 17009
17786 4 13314 13344 17009 17145
17787 9 12685 12686 12705 13315 17009 17011 17616 17713 17758
17788 1 17439
17789 1 17763
17790 1 17764
17791 1 17763
17792 1 17764
17793 1 17739
17794 1 17439
17795 1 17764
17796 1 17764
17797 3 17737 17738 17741
17798 2 17737 17740
17799 2 17739 17740
17800 2 17742 17750
17801 1 17769
17802 2 17745 17750
17803 2 17744 17750
17804 6 17439 17607 17741 17743 17745 17750
17805 5 17764 17765 17766 17767 28749
17806 3 17722 17767 17768
17807 6 17440 17441 17442 17610 17611 17769
17808 1 17611
17809 2 12704 17653
17810 2 12537 17657
17811 1 17657
17812 2 15213 17149
17813 4 12542 15215 17148 17658
17814 2 17432 17833
17815 3 16926 17439 17834
17816 4 12607 12723 12853 12860
17817 4 12514 12607 12860 13272
17818 5 12514 12858 12866 13274 17836
17819 3 12812 12868 17837
17820 1 12812
17821 2 13255 13279
17822 3 12792 12877 13204
17823 8 12791 12793 12873 12874 12875 12877 12951 12952
17824 2 12795 12877
17825 8 12796 12797 12798 12876 12878 13194 13204 13215
17826 2 12798 13215
17827 3 16922 16923 17598
17828 1 17601
17829 1 17737
17830 2 16925 17439
17831 1 17439
17832 1 17439
17833 3 17432 17439 17814
17834 1 17815
17835 8 12857 12858 12959 13256 13268 13269 13271 13274
17836 3 12866 13274 17818
17837 7 12812 12863 12868 13255 13256 13271 17819
17838 3 12795 13198 13204
17839 1 17850
17840 3 17665 17848 17850
17841 3 12147 17018 17467
17842 13 16865 16867 17017 17255 17316 17537 17538 17539 17634 17636 17844 17846 17847
17843 4 12004 12147 12148 12698
17844 11 11740 12005 12006 12020 12147 12149 12151 12155 17634 17842 17847
17845 2 12155 13283
17846 7 16865 17017 17315 17523 17537 17636 17842
17847 7 12152 12155 17210 17255 17665 17842 17844
17848 11 13200 13202 13203 13206 13207 13208 13210 13220 17665 17840 17852
17849 3 13209 17665 17851
17850 5 13209 17665 17839 17840 17851
17851 4 13209 17665 17849 17850
17852 1 17848
17853 2 9591 9694
17854 5 9591 9592 9596 9694 17857
17855 2 9595 18265
17856 3 9694 17857 17858
17857 4 9596 9694 17854 17856
17858 3 9694 17856 18266
17859 3 9597 19750 20195
17860 3 9657 9658 19750
17861 4 14744 14745 14803 17888
17862 1 17888
17863 5 8510 8884 14746 14804 17888
17864 2 17873 17889
17865 2 17874 17889
17866 2 9699 17889
17867 1 17895
17868 2 7698 17898
17869 1 17898
17870 5 8885 9697 13695 17888 18898
17871 1 9880
17872 6 8542 8543 8590 9000 9038 17898
17873 6 7689 7965 9058 17864 17889 17898
17874 2 17865 17889
17875 3 7699 9058 17889
17876 4 7686 17901 17903 19868
17877 2 8870 8883
17878 1 14744
17879 5 17896 18364 18367 18372 18375
17880 6 7671 8989 9880 18368 18370 18376
17881 2 7686 17903
17882 4 9840 9860 9897 17903
17883 4 7641 9709 17894 17908
17884 2 7610 7634
17885 4 7597 7612 7613 7636
17886 1 13874
17887 3 7638 13874 18897
17888 24 7740 7741 8510 8528 8545 8883 9690 9697 9730 14522 14662 14744 14745 14747 14748 14749 14803 14804 17861 17862 17863 17870 18724 18898
17889 13 7699 7952 7965 8609 9058 9699 17864 17865 17866 17873 17874 17875 17899
17890 4 8906 9702 14776 17900
17891 3 9066 9702 17900
17892 2 8536 17906
17893 9 7706 8901 9643 9645 9704 9708 9728 13504 14781
17894 21 7641 7763 7764 8593 8611 8614 9706 9707 9709 9710 9864 13504 14834 14835 14836 14839 14840 17883 17902 17907 18713
17895 12 9650 9651 9844 9873 13504 13674 13838 14223 16491 17867 18732 18733
17896 7 9806 9876 9877 17879 18364 18369 18375
17897 13 7697 7707 7947 7967 8515 9037 14672 14674 14678 14685 14810 18647 18650
17898 14 7689 7696 7698 7965 8542 8590 9577 17868 17869 17872 17873 18648 18649 18651
17899 21 7701 7702 7703 7708 7709 7714 8609 8888 8904 9016 9018 9039 9041 9045 9046 9059 9699 14774 14814 17889 18449
17900 22 7782 8533 8534 8585 8611 8617 8618 9066 9702 9703 9710 14776 14778 14829 14830 14831 14832 14847 17890 17891 18524 18688
17901 8 7686 9636 9637 17876 19722 19726 19864 19868
17902 4 8611 9706 9710 17894
17903 11 7686 8743 8776 9840 9860 9892 9897 17876 17881 17882 19868
17904 1 8778
17905 2 8779 9897
17906 12 8503 8505 8536 8612 8613 8997 9705 9862 9887 9902 14780 17892
17907 4 7641 7662 9864 17894
17908 7 7641 9709 9866 9873 17883 18730 18777
17909 1 14846
17910 4 7643 7850 14812 14813
17911 4 7644 7646 7850 17916
17912 3 7950 7962 8975
17913 8 7650 7951 7962 7963 8976 14843 14844 18327
17914 2 7650 14844
17915 3 7668 14864 14869
17916 7 7643 7644 7646 7667 7668 14813 17911
17917 3 7966 14865 14875
17918 1 7650
17919 4 8196 8627 8628 19897
17920 6 7900 9911 9913 9918 19897 19923
17921 3 9920 9922 19902
17922 5 7901 7902 9922 19902 19939
17923 3 7901 19911 19944
17924 6 7902 7903 19902 19911 19939 19944
17925 2 7906 19904
17926 1 7906
17927 2 7906 19904
17928 4 7906 10418 19904 19913
17929 3 7906 10419 19913
17930 2 7906 19882
17931 3 8632 10420 19924
17932 2 8914 19947
17933 4 7909 8250 8252 19951
17934 4 7909 7910 8252 8915
17935 8 7910 8218 8252 8254 8915 19887 19917 19951
17936 8 7911 7912 7913 8219 8635 9955 19887 19928
17937 13 7914 8220 8221 8255 8636 10425 19918 19919 19920 19929 19930 20024 20063
17938 6 8226 8637 8916 15469 19920 19931
17939 1 19908
17940 1 28752
17941 2 9998 19922
17942 11 8917 9981 9987 10429 19907 19908 19909 19922 28571 28752 28757
17943 2 9997 28752
17944 2 9996 19889
17945 4 10007 19889 28574 28752
17946 4 9245 9284 10104 20088
17947 4 8097 8098 9213 9286
17948 11 8003 8097 8098 9139 9176 9213 9246 9286 9290 9322 10109
17949 3 8008 8141 8918
17950 4 8049 8104 9213 9322
17951 3 8008 8141 10111
17952 1 8919
17953 3 8049 8919 9142
17954 1 8919
17955 2 8919 9142
17956 1 9142
17957 1 9142
17958 2 8919 9142
17959 2 8921 8923
17960 2 8919 9142
17961 1 8923
17962 1 8923
17963 3 8115 9142 10132
17964 3 8117 9149 10132
17965 2 8667 8923
17966 7 8120 8668 8924 9149 9234 10130 10138
17967 2 8662 10136
17968 3 8153 8665 10142
17969 3 8668 9234 10141
17970 1 10155
17971 2 8153 8667
17972 1 8030
17973 5 8134 8668 9154 9159 9234
17974 1 8668
17975 1 8671
17976 10 8079 8080 9228 9229 9312 9331 10148 10149 10150 10158
17977 5 8032 8080 8191 8928 10158
17978 1 8671
17979 2 9251 10156
17980 4 8032 8033 8191 8928
17981 3 8086 8929 9235
17982 1 8671
17983 4 8033 8038 8191 8930
17984 2 8037 8671
17985 1 8671
17986 2 8038 8930
17987 1 8671
17988 2 8036 9234
17989 3 8038 8669 8930
17990 1 8671
17991 4 8089 8171 8180 8670
17992 2 8671 9314
17993 1 8671
17994 2 8671 8932
17995 3 8180 8670 8938
17996 3 8934 9240 15385
17997 1 8671
17998 2 8671 8932
17999 1 10187
18000 1 8938
18001 1 8671
18002 5 8089 8091 8172 8180 8938
18003 2 8092 9239
18004 6 8090 8091 8172 8935 8937 9316
18005 2 8041 8941
18006 2 8943 9240
18007 2 8943 9240
18008 3 8136 9242 10187
18009 4 8936 8941 9253 10197
18010 2 8943 9240
18011 2 8943 11230
18012 3 9241 10189 10191
18013 2 8943 11230
18014 2 8943 11230
18015 2 8941 9317
18016 3 8943 10198 11230
18017 6 8094 8674 8944 8945 9190 9239
18018 6 8042 8093 8194 8677 8942 16593
18019 3 8044 8136 10193
18020 4 8681 10203 10771 10772
18021 4 8681 10772 10815 11328
18022 9 8046 8173 8181 8193 8677 8680 8946 8948 16593
18023 10 8046 8047 8680 8682 8947 8948 16052 16094 16243 16582
18024 3 7891 18852 18856
18025 4 7888 8289 10492 18851
18026 1 18856
18027 5 7792 10494 18853 18856 18858
18028 2 7792 8291
18029 11 7889 8289 8290 10493 18640 18818 18823 18854 18857 18901 18904
18030 4 7891 8407 18855 18856
18031 4 7871 10497 10498 18860
18032 2 10498 18859
18033 6 7890 10495 10496 18856 18858 18904
18034 2 18859 18904
18035 5 7799 7803 7834 7838 10489
18036 2 8321 10550
18037 1 18886
18038 16 7800 7833 7835 7836 8307 8311 8312 8313 10488 10507 10508 10550 18824 18864 18883 18886
18039 1 11403
18040 1 11403
18041 1 11402
18042 1 11403
18043 4 8337 8339 11400 11403
18044 1 11497
18045 5 7820 8322 10514 18891 18910
18046 35 7798 7799 7803 7804 7805 7806 7807 7808 7810 7834 7838 8310 8319 8324 8326 8328 8329 8330 8331 8332 8333 8346 8347 8350 8391 10504 10508 10509 10512 10515 10520 11402 11403 11490 11497
18047 1 18891
18048 1 18891
18049 2 18160 18891
18050 13 7811 7812 7819 7821 7822 7839 7841 7843 8342 8354 10522 10526 18886
18051 4 7842 8354 10541 18875
18052 3 7842 18166 18875
18053 6 7790 10256 10272 10273 18054 18061
18054 4 10256 18053 18061 18153
18055 1 8998
18056 2 8998 9778
18057 3 8378 8688 18142
18058 1 8188
18059 14 8188 8841 8843 8844 8969 8970 8998 9029 9775 18138 18139 18140 18143 18159
18060 3 8384 8689 18147
18061 22 7915 7917 7918 7919 7922 7955 7956 8949 8977 10284 15442 15446 18053 18054 18110 18120 18121 18123 18124 18125 18126 18153
18062 2 8689 18148
18063 15 8415 8685 8686 10256 10273 10290 18069 18070 18075 18109 18118 18119 18146 18153 18154
18064 7 7855 8263 8557 18073 18127 18150 28499
18065 3 7854 18074 18149
18066 5 8261 8262 8430 8457 18074
18067 10 8431 8461 8559 8563 18072 18074 18129 18151 18152 18158
18068 1 8566
18069 8 7899 8566 8685 13849 13883 15418 18063 18154
18070 7 8550 15439 18063 18153 18154 18348 18358
18071 9 7916 8429 15442 15444 15445 18120 18349 18360 18361
18072 5 8548 8563 8564 18067 18158
18073 6 7855 7857 15043 18064 18127 28384
18074 15 7854 7855 7857 8053 8260 8261 8430 8457 8559 15023 15045 18065 18066 18067 18152
18075 7 8412 8415 8419 8684 8686 15046 18063
18076 1 18360
18077 3 18120 18356 18359
18078 5 9885 18083 18085 18102 18204
18079 4 14550 18101 18203 18204
18080 2 18101 18204
18081 1 18204
18082 1 18204
18083 2 18078 18204
18084 3 18085 18204 18205
18085 10 9507 9885 18078 18084 18090 18091 18092 18204 18205 18685
18086 4 14547 14878 18214 18216
18087 5 9885 14548 18201 18214 18215
18088 3 14548 18201 18207
18089 2 14548 18207
18090 2 18085 18205
18091 2 18085 18205
18092 2 18085 18205
18093 4 9044 14547 18100 18202
18094 2 18200 18212
18095 4 14553 14554 18212 18218
18096 4 14554 14555 18209 18218
18097 3 14555 14556 18219
18098 3 7853 8995 14878
18099 2 14547 14878
18100 5 9044 14547 14878 18093 18202
18101 5 9885 18079 18080 18203 18204
18102 3 9885 18078 18204
18103 1 18153
18104 2 18155 18158
18105 1 18158
18106 2 8548 18158
18107 1 18158
18108 1 8841
18109 2 18063 18118
18110 1 18061
18111 4 8280 8281 8469 18150
18112 2 8177 18130
18113 3 8179 18130 18158
18114 1 18158
18115 1 8841
18116 1 18159
18117 2 10275 18144
18118 3 18063 18109 18153
18119 2 18063 18153
18120 8 15442 18061 18071 18077 18153 18356 18359 18360
18121 1 18061
18122 3 8189 10275 18148
18123 1 18061
18124 1 18061
18125 1 18061
18126 2 7922 18061
18127 4 18064 18073 28384 28499
18128 12 8280 8426 8427 8428 10431 10432 18150 28376 28378 28379 28383 28499
18129 4 8178 18067 18152 18158
18130 2 18112 18113
18131 1 18158
18132 2 8548 18158
18133 3 8548 18156 18158
18134 3 8548 18157 18158
18135 4 8374 8375 8548 18158
18136 2 8548 18158
18137 2 8548 18158
18138 2 8998 18059
18139 2 9775 18059
18140 2 8998 18059
18141 4 8187 8188 10275 18159
18142 9 8370 8377 8378 8548 8688 8842 10275 18057 18158
18143 2 8998 18059
18144 3 8189 10275 18117
18145 3 7898 8382 10275
18146 2 10273 18063
18147 6 7898 8383 8384 8689 10275 18060
18148 6 8189 8689 9875 10275 18062 18122
18149 1 18065
18150 10 8267 8280 8281 8470 8471 8557 18064 18111 18128 28499
18151 2 8563 18067
18152 6 8053 8178 18067 18074 18129 18158
18153 15 10256 18054 18061 18063 18070 18103 18118 18119 18120 18347 18348 18350 18352 18358 18359
18154 5 7899 8550 18063 18069 18070
18155 1 18104
18156 3 8537 8548 18133
18157 4 8518 8537 8548 18134
18158 26 8186 8370 8376 8548 10458 18067 18072 18104 18105 18106 18107 18113 18114 18129 18131 18132 18133 18134 18135 18136 18137 18142 18152 18797 18798 18799
18159 6 8187 8188 8841 18059 18116 18141
18160 3 7824 18049 18891
18161 1 7824
18162 7 8355 8392 10529 10530 10531 10534 10537
18163 4 8393 10553 10554 18877
18164 7 8352 8393 10540 10554 18828 18877 18879
18165 4 7824 7832 7893 15378
18166 6 7813 7894 10539 15379 18052 18875
18167 6 7828 7829 8364 10544 18878 18879
18168 1 7829
18169 1 7829
18170 1 7830
18171 13 7825 7826 7827 7828 7830 8366 8393 10540 10542 10545 10556 11465 18879
18172 1 7829
18173 1 7829
18174 1 7829
18175 1 7829
18176 1 7830
18177 3 7791 7829 7895
18178 5 7830 7831 7896 8367 18882
18179 2 7881 11103
18180 1 9377
18181 3 7881 7883 11103
18182 1 11104
18183 1 11103
18184 3 9361 11087 15395
18185 4 7881 11090 11103 15412
18186 1 11095
18187 2 7881 11103
18188 3 11097 15404 15405
18189 2 11097 15405
18190 5 8442 11094 11102 15424 15426
18191 3 8441 15421 15423
18192 2 11093 15423
18193 2 11093 15423
18194 3 7884 11095 18352
18195 2 8443 11098
18196 5 9407 11097 15392 15404 18352
18197 3 11079 15398 15408
18198 11 9407 9408 11079 15392 15396 15397 15398 15399 15400 15405 15408
18199 2 11107 15429
18200 4 14552 18094 18212 18213
18201 3 14548 18087 18088
18202 3 14547 18093 18100
18203 4 9885 14550 18079 18101
18204 13 9885 14550 14551 18078 18079 18080 18081 18082 18083 18084 18085 18101 18102
18205 6 18084 18085 18090 18091 18092 18685
18206 4 9045 14552 14560 18473
18207 3 14548 18088 18089
18208 4 9047 14549 14552 18217
18209 6 8615 14555 18096 18218 18219 18220
18210 2 14556 18219
18211 3 8615 14557 18219
18212 7 14552 14553 18094 18095 18200 18213 18218
18213 6 8615 14552 18200 18212 18218 18220
18214 8 9857 9884 9885 14818 18086 18087 18216 18333
18215 3 9885 14550 18087
18216 5 14878 18086 18214 18321 18333
18217 5 9047 14549 14552 14560 18208
18218 7 14554 18095 18096 18209 18212 18213 18220
18219 8 8615 14555 14556 14557 18097 18209 18210 18211
18220 4 8615 18209 18213 18218
18221 1 18279
18222 1 18279
18223 7 14526 18224 18239 18240 18254 18279 18289
18224 4 14526 18223 18239 18240
18225 1 15574
18226 3 9876 18232 18298
18227 1 15574
18228 1 15574
18229 3 15574 15575 18252
18230 4 7711 14527 18242 18289
18231 4 7756 10639 10642 18304
18232 4 9806 9876 18226 18298
18233 1 18263
18234 2 18263 18285
18235 3 7742 9879 18263
18236 2 9881 18262
18237 1 18302
18238 20 7718 9880 10609 10610 10613 10617 10628 10631 10639 15573 18252 18255 18258 18276 18277 18279 18288 18301 18302 18304
18239 5 10650 14526 18223 18224 18279
18240 3 14526 18223 18224
18241 3 18281 19692 19756
18242 4 7711 18230 18282 18289
18243 4 7728 10695 10696 18267
18244 3 10696 18269 18283
18245 5 10695 10696 10720 15586 18269
18246 4 10720 18270 18271 18292
18247 1 18311
18248 4 7747 18273 18293 18311
18249 3 7777 10720 18293
18250 2 18263 18298
18251 4 18262 18263 18300 18302
18252 10 10613 15570 15574 15575 18229 18238 18286 18287 18302 18304
18253 7 7719 9082 9083 9086 9116 9129 10655
18254 6 14526 18223 18279 18282 18289 18304
18255 3 10628 18238 18279
18256 6 9875 9876 9906 10262 10287 18294
18257 2 9876 18295
18258 2 18238 18302
18259 1 18302
18260 9 9698 9880 10608 10611 14634 14635 18277 18303 19833
18261 2 7743 18302
18262 6 9881 18236 18251 18285 18300 18302
18263 27 7725 7726 7742 9072 9806 9876 9879 10269 10282 10605 10606 10607 10614 10615 18233 18234 18235 18250 18251 18285 18296 18297 18298 18299 18300 18302 19832
18264 4 10618 15574 18286 18302
18265 7 9591 9592 9595 9596 14526 17855 18303
18266 7 9597 9694 9700 17858 18306 20171 20195
18267 8 9080 10694 10695 10696 15585 18243 18309 19848
18268 4 10695 15586 18284 18310
18269 9 9113 10696 10697 10720 18244 18245 18283 18290 18309
18270 6 7745 7774 10720 18246 18292 18310
18271 5 7746 7748 10720 18246 18292
18272 4 7748 10720 18292 20156
18273 3 18248 18293 18311
18274 2 7759 18293
18275 6 7753 10564 10576 10720 18293 20158
18276 2 9880 18238
18277 8 9880 10608 10610 10617 14526 18238 18260 18303
18278 4 9075 15570 15579 18304
18279 17 7756 7757 10628 10639 10642 10650 14526 15573 18221 18222 18223 18238 18239 18254 18255 18288 18304
18280 4 9080 10687 18291 19848
18281 4 18241 18291 19756 20195
18282 8 7711 9088 9122 14699 18242 18254 18289 18304
18283 2 18244 18269
18284 5 7745 10720 15586 18268 18310
18285 10 9410 9807 9878 9881 10282 18234 18262 18263 18299 18300
18286 4 15574 18252 18264 18302
18287 1 18252
18288 4 10617 14526 18238 18279
18289 7 14526 14527 18223 18230 18242 18254 18282
18290 5 9113 10697 18269 18309 19858
18291 16 9080 9112 9119 9857 10563 10757 14644 15582 18280 18281 18306 18772 19804 19848 19856 20195
18292 12 7748 10576 10720 18246 18270 18271 18272 18310 18760 18772 20156 20158
18293 24 7747 7749 7752 7753 7759 7776 7777 7779 7780 10564 10568 10569 10720 10726 18248 18249 18273 18274 18275 18311 18770 20159 20177 20182
18294 3 9875 10287 18256
18295 6 7772 9876 10266 10269 15595 18257
18296 3 10269 10282 18263
18297 4 9806 9877 18263 19832
18298 6 9806 9876 18226 18232 18250 18263
18299 2 18263 18285
18300 4 18251 18262 18263 18285
18301 2 7718 18238
18302 30 7718 7725 7726 7743 7787 9072 9073 9082 9092 9115 9129 9881 10614 10615 10616 10657 15574 15587 18237 18238 18251 18252 18258 18259 18261 18262 18263 18264 18286 19739
18303 9 9591 9698 10611 10756 14526 18260 18265 18277 19744
18304 16 7756 7757 9077 9088 10631 10639 14699 15570 15579 18231 18238 18252 18254 18278 18279 18282
18305 4 9079 9122 10677 10689
18306 7 9700 9849 18266 18291 18333 19856 20195
18307 8 9110 9120 9122 10686 10691 10692 19762 19767
18308 4 7713 9122 19852 19854
18309 13 9427 10696 14663 14713 14714 14816 18267 18269 18290 19691 19804 19848 19858
18310 9 7745 9071 9112 10695 18268 18270 18284 18292 18760
18311 13 7750 7751 7752 10568 10714 10726 18247 18248 18273 18293 20157 20177 20178
18312 9 7761 9854 10565 10577 18756 18764 18770 18779 20183
18313 1 9004
18314 1 8992
18315 2 8992 14535
18316 2 9004 18646
18317 2 14540 18326
18318 5 9011 14531 14534 14536 18336
18319 3 9010 14543 18326
18320 3 14528 18326 18337
18321 3 14878 18216 18333
18322 5 7969 8582 14844 18330 18397
18323 1 8612
18324 2 8608 18422
18325 2 8601 18422
18326 13 7967 9010 14528 14529 14540 14543 14558 14769 18317 18319 18320 18337 18338
18327 4 7962 7963 17913 18336
18328 3 8582 8603 18397
18329 1 8596
18330 9 7969 8596 8598 8605 8607 18322 18397 18403 18408
18331 7 7952 7965 8544 8597 8599 8609 18409
18332 4 7953 8600 18407 18410
18333 9 9849 9883 9884 14878 18214 18216 18306 18321 19856
18334 4 8492 8583 8612 8616
18335 3 8592 8609 9012
18336 9 7950 7962 7963 9011 14544 14559 18318 18327 18339
18337 9 7967 8951 8954 8961 9003 14528 14530 18320 18326
18338 1 18326
18339 1 18336
18340 4 7967 9010 14782 18391
18341 4 7880 11091 15395 18352
18342 5 8443 8444 11098 11105 18353
18343 2 8000 18353
18344 1 18353
18345 1 18353
18346 5 8000 11114 15434 18353 18354
18347 2 18153 18358
18348 3 18070 18153 18358
18349 4 7916 18071 18360 18361
18350 5 11104 15428 18153 18352 18358
18351 3 11103 15412 18355
18352 24 7880 7884 9407 9408 11079 11083 11087 11095 11104 15395 15396 15397 15402 15404 15408 15416 15420 18153 18194 18196 18341 18350 18357 18359
18353 15 8000 8421 8443 8444 8445 8548 9392 11105 11114 15431 18342 18343 18344 18345 18346
18354 8 8000 8001 8379 8688 11112 11113 15434 18346
18355 9 7899 8550 8567 9371 11103 15418 15441 18351 18808
18356 5 15440 18077 18120 18359 18360
18357 3 15402 15416 18352
18358 7 15428 15439 18070 18153 18347 18348 18350
18359 7 15408 15440 18077 18120 18153 18352 18356
18360 8 7916 7920 15440 18071 18076 18120 18349 18356
18361 3 7916 18071 18349
18362 4 9029 9405 16528 19824
18363 1 9004
18364 2 17879 17896
18365 1 16523
18366 3 8989 8992 9006
18367 1 17879
18368 2 8989 17880
18369 1 17896
18370 1 17880
18371 5 8733 8734 8797 16391 16476
18372 1 17879
18373 1 14619
18374 2 8772 8798
18375 3 9877 17879 17896
18376 2 9880 17880
18377 2 8772 8798
18378 3 8772 10800 16531
18379 2 8772 16524
18380 2 10800 10821
18381 1 10800
18382 1 9877
18383 2 9781 9880
18384 1 20043
18385 2 10822 16524
18386 3 10800 10821 10822
18387 1 16397
18388 2 7963 8603
18389 3 8773 10824 20115
18390 1 20043
18391 2 7967 18340
18392 1 10822
18393 1 10824
18394 9 8734 8797 10822 16391 16395 16397 16476 16479 19976
18395 3 10822 16397 16476
18396 1 10822
18397 5 8582 8605 18322 18328 18330
18398 2 19976 20135
18399 2 10822 20135
18400 3 8479 8480 8599
18401 1 8596
18402 1 20135
18403 2 8607 18330
18404 1 7966
18405 3 7643 7668 7679
18406 6 7643 7650 7666 7850 14812 14846
18407 1 18332
18408 5 7964 7969 8598 8607 18330
18409 3 8599 8609 18331
18410 2 8600 18332
18411 1 8600
18412 3 8589 8600 8608
18413 1 20117
18414 1 20117
18415 2 10212 19841
18416 2 15461 20054
18417 1 19745
18418 11 8802 19958 19959 19978 19980 19982 19983 20049 20051 20053 20135
18419 2 20053 20135
18420 1 20054
18421 1 15506
18422 9 7966 8580 8589 8601 8608 9013 16535 18324 18325
18423 1 15507
18424 1 20054
18425 4 8802 20053 20103 20135
18426 1 20055
18427 2 8532 19749
18428 1 20055
18429 2 9014 16535
18430 2 8532 10214
18431 1 10214
18432 1 19749
18433 3 10215 19749 19841
18434 1 8763
18435 2 8801 15507
18436 2 8763 8803
18437 1 8763
18438 2 15507 20055
18439 1 19840
18440 3 10215 14755 19841
18441 5 19840 19985 20021 20055 20093
18442 2 9023 16535
18443 2 8763 20056
18444 1 20021
18445 1 20023
18446 1 8737
18447 1 20056
18448 1 8737
18449 9 9015 9016 9018 9025 9026 9039 9041 9046 17899
18450 6 10209 10243 14700 19751 19753 19841
18451 1 20095
18452 2 19753 19841
18453 3 10211 19754 19845
18454 3 19693 19694 20056
18455 1 19845
18456 2 14707 19845
18457 4 14704 14705 14712 19841
18458 2 9018 9026
18459 1 20095
18460 1 20095
18461 1 8774
18462 1 20095
18463 1 20095
18464 1 20095
18465 2 8740 8764
18466 3 8738 8805 19849
18467 3 8740 8806 20095
18468 2 8807 19855
18469 2 19988 20096
18470 9 8994 9017 9020 9023 9024 9040 9042 9043 16535
18471 2 8739 8764
18472 2 8739 10218
18473 6 8991 9018 9019 9021 9045 18206
18474 2 8740 19865
18475 1 8775
18476 3 10219 10228 19772
18477 2 10208 19807
18478 5 8739 10218 10219 10228 10229
18479 1 10229
18480 1 10229
18481 1 20139
18482 2 19960 20139
18483 1 20139
18484 3 8775 10208 19807
18485 1 10229
18486 1 10229
18487 3 10229 10230 19774
18488 1 19865
18489 1 20124
18490 1 10221
18491 3 10220 10230 19865
18492 2 10221 19807
18493 1 10245
18494 2 20097 20139
18495 1 20124
18496 2 15538 20139
18497 2 10245 19858
18498 1 10245
18499 3 14759 14760 19860
18500 3 10223 19990 20066
18501 8 9622 10222 10231 14760 18684 19728 19781 19860
18502 1 20066
18503 1 10223
18504 4 10233 10236 19728 19860
18505 1 7635
18506 1 20124
18507 1 20124
18508 12 9465 9621 9623 10232 10234 10235 10237 10244 19704 19706 19727 19865
18509 4 10236 10238 14726 19860
18510 1 10238
18511 1 20067
18512 1 10238
18513 1 10238
18514 2 7614 15623
18515 1 20067
18516 1 8612
18517 1 10238
18518 1 20098
18519 1 10238
18520 1 20067
18521 4 10238 10239 14819 19860
18522 1 10239
18523 3 10237 10240 19865
18524 1 17900
18525 3 10239 10242 19860
18526 1 10240
18527 1 10242
18528 1 10240
18529 3 10226 10240 10241
18530 1 10241
18531 1 14767
18532 4 10227 10241 14767 19865
18533 5 7600 7614 7618 7635 15623
18534 1 20098
18535 3 7601 7618 7635
18536 6 9858 19721 19723 19794 20067 20070
18537 1 20098
18538 1 20098
18539 1 20070
18540 2 9858 19794
18541 4 9858 20070 20125 20140
18542 1 20070
18543 3 8743 9528 9860
18544 1 13874
18545 1 7635
18546 3 20070 20098 20141
18547 1 20070
18548 2 19995 20069
18549 1 8785
18550 1 19995
18551 1 20070
18552 1 8789
18553 1 8702
18554 1 8725
18555 1 8701
18556 1 8702
18557 1 10817
18558 2 19995 20031
18559 2 7639 8706
18560 2 8702 18835
18561 3 7638 18833 18897
18562 1 8789
18563 1 8785
18564 2 8789 15551
18565 1 8789
18566 1 8785
18567 1 15563
18568 2 18836 18897
18569 3 8747 8789 20072
18570 1 9853
18571 1 18897
18572 4 19893 19962 20031 20032
18573 9 9195 9196 9197 9347 10770 10803 10817 15530 15562
18574 1 19966
18575 2 8545 10370
18576 1 18897
18577 4 10328 10370 18835 18896
18578 3 19966 20032 20105
18579 2 9870 16525
18580 1 10300
18581 1 8791
18582 2 10300 15627
18583 4 8545 10330 10371 10372
18584 1 19966
18585 3 10331 10384 15628
18586 1 10330
18587 3 7619 10330 10331
18588 1 8791
18589 1 20032
18590 1 20078
18591 1 19999
18592 2 8791 19999
18593 2 8791 19998
18594 1 19999
18595 1 20078
18596 1 20032
18597 11 10298 10300 10329 13874 14009 15386 15387 15388 18816 18817 18897
18598 5 10299 10300 15389 15390 15633
18599 1 10335
18600 6 7620 7630 10335 10336 10373 15635
18601 2 19966 20032
18602 2 20008 20079
18603 2 8768 20080
18604 3 8623 10301 20212
18605 2 14189 14231
18606 2 18839 20212
18607 1 8623
18608 3 8622 10338 20211
18609 1 8791
18610 3 8786 8788 20078
18611 2 18839 20211
18612 1 8791
18613 3 8788 8816 20078
18614 2 20003 20081
18615 6 19483 19964 20084 20112 28578 28664
18616 4 8623 18839 20212 20213
18617 2 13839 18839
18618 1 16498
18619 1 16498
18620 3 19970 20006 20087
18621 3 9198 9246 20010
18622 5 8623 10303 10349 10377 20213
18623 6 8794 9137 9138 9139 9246 20009
18624 2 16494 20087
18625 1 8769
18626 3 8645 9320 20012
18627 3 7626 10376 20213
18628 1 16494
18629 1 16494
18630 2 16494 18734
18631 1 16494
18632 2 20037 20114
18633 1 16494
18634 1 20091
18635 1 14215
18636 4 9214 16403 16405 16494
18637 2 8771 10814
18638 6 10398 14190 15648 18849 18854 18906
18639 2 8771 10814
18640 3 18029 18818 18901
18641 11 8307 14190 18820 18821 18844 18845 18846 18854 18902 18903 18904
18642 2 16523 19825
18643 2 16523 19826
18644 1 19826
18645 3 16523 19825 19826
18646 3 9004 14530 18316
18647 1 17897
18648 1 17898
18649 1 17898
18650 2 9037 17897
18651 3 8542 9038 17898
18652 3 8479 8599 9038
18653 4 8581 8595 8604 9037
18654 2 19841 20119
18655 2 7607 8690
18656 2 7607 8877
18657 1 7607
18658 1 7607
18659 3 7607 8690 8691
18660 1 8488
18661 1 8691
18662 1 8488
18663 2 7607 15652
18664 1 20023
18665 2 20022 20056
18666 2 7586 8488
18667 1 20023
18668 1 20056
18669 4 7586 7588 7604 8490
18670 1 8540
18671 4 7588 7604 7607 15659
18672 4 7590 7605 7607 15660
18673 5 8539 8540 14717 14792 14815
18674 1 7640
18675 1 10399
18676 1 10399
18677 1 10399
18678 1 10399
18679 3 7628 8878 10310
18680 2 10399 15610
18681 1 10399
18682 1 10399
18683 2 10400 15618
18684 2 18501 19781
18685 2 18085 18205
18686 1 8615
18687 1 8615
18688 5 8610 8615 8906 14776 17900
18689 4 7733 7734 8893 9696
18690 2 7616 10393
18691 1 10327
18692 1 10323
18693 1 10327
18694 30 7616 7617 7628 7635 8693 8704 8707 8868 8893 10314 10315 10316 10317 10318 10319 10320 10321 10322 10323 10387 10388 10389 10390 10391 10392 10393 10394 10399 10400 14660
18695 2 7617 10323
18696 4 7617 8699 8868 10327
18697 1 10327
18698 2 7635 10325
18699 1 10325
18700 1 10325
18701 3 7635 10325 10327
18702 2 8699 8705
18703 3 7601 7635 13874
18704 1 7635
18705 1 13874
18706 1 8710
18707 13 8709 8710 8894 8895 8897 8898 8901 9631 9643 14609 14736 14739 14740
18708 1 8706
18709 1 8705
18710 3 9852 9902 18779
18711 4 8523 8709 8713 8907
18712 2 8525 8714
18713 4 8500 8611 8614 17894
18714 3 8710 8714 8901
18715 2 8789 20074
18716 2 8789 20030
18717 4 8526 9902 16496 16544
18718 1 9902
18719 1 9902
18720 1 9902
18721 1 9902
18722 1 9902
18723 1 16545
18724 3 14662 17888 18898
18725 2 10331 15630
18726 2 7629 10331
18727 2 16539 16545
18728 8 7603 7619 7629 7630 10332 10333 10334 18898
18729 2 20080 20108
18730 8 9835 9842 9866 9869 9873 9900 16545 17908
18731 1 20080
18732 1 17895
18733 2 13838 17895
18734 8 9139 16494 18630 19971 20017 20087 20089 20091
18735 2 7625 13838
18736 3 8796 14213 14223
18737 3 7625 13838 14223
18738 5 7626 13839 18840 18899 18900
18739 3 10343 10378 18841
18740 5 10342 10343 10395 10398 18841
18741 1 19774
18742 6 7637 10440 13869 14901 15626 18814
18743 2 10446 15643
18744 1 10470
18745 15 7981 7988 8622 10442 10444 10478 13904 13906 13907 13951 14908 15394 15637 15639 15644
18746 7 7983 7984 10446 10472 10473 10474 10475
18747 2 8400 10477
18748 6 9754 9757 10594 10595 14617 14618
18749 6 9757 9768 10596 10597 10599 14618
18750 7 9389 9391 9768 10600 10601 10602 10603
18751 1 18772
18752 4 7736 9854 18772 18773
18753 3 10750 18765 20166
18754 7 7783 7847 18774 19799 19800 19867 20188
18755 2 9830 9902
18756 6 9820 9854 9902 18312 18773 18779
18757 1 18777
18758 2 7715 18769
18759 4 9872 9873 18767 18769
18760 4 9112 18292 18310 18772
18761 5 9507 9810 9857 9886 18772
18762 2 9705 9887
18763 2 9705 18772
18764 5 18312 18770 18779 20185 20201
18765 12 7737 7738 7785 9902 10753 18753 18775 18776 18780 20166 20188 20201
18766 7 7739 9793 9828 9836 9902 18774 20188
18767 4 9872 9873 18759 18778
18768 6 9797 9837 9872 9873 9903 18778
18769 8 7715 9801 9855 9872 9873 9904 18758 18759
18770 11 7753 7760 7780 7781 10577 18293 18312 18764 18771 20159 20185
18771 3 7760 10577 18770
18772 16 7736 9112 9705 9854 9857 9862 9886 10565 10576 18291 18292 18751 18752 18760 18761 18763
18773 6 7736 9854 9862 9902 18752 18756
18774 5 7847 9902 18754 18766 20188
18775 7 7784 7785 9902 18765 18780 20188 20202
18776 4 9830 9902 18765 18780
18777 5 9709 9873 13504 17908 18757
18778 5 9797 9872 9873 18767 18768
18779 6 9902 18312 18710 18756 18764 20201
18780 7 7785 7786 9830 9902 18765 18775 18776
18781 2 15011 18791
18782 3 8178 18792 18793
18783 3 15024 15025 18790
18784 2 8717 15025
18785 1 18795
18786 2 13419 18795
18787 4 8179 8719 8720 18795
18788 2 8183 18795
18789 10 8195 8716 10447 10448 10454 10455 13414 13419 13456 18795
18790 5 8182 15024 15025 18783 18792
18791 9 8050 8053 8178 15003 15011 15044 15045 18781 18793
18792 6 8178 8182 15024 18782 18790 18793
18793 7 8050 8178 15011 15024 18782 18791 18792
18794 2 8182 15025
18795 14 8179 8182 8183 8195 8716 8719 8720 13419 15025 18785 18786 18787 18788 18789
18796 4 10448 10455 10456 18799
18797 3 18158 18798 18799
18798 4 8183 18158 18797 18799
18799 6 10455 10456 18158 18796 18797 18798
18800 1 18808
18801 1 18810
18802 1 18810
18803 2 15417 18810
18804 2 10404 15418
18805 4 9351 10404 10405 15418
18806 5 7877 9362 10405 10406 15418
18807 1 15417
18808 7 7883 9374 9375 11103 15441 18355 18800
18809 10 8273 8274 8620 10401 10402 15413 15414 15438 17050 19584
18810 7 8275 8621 15415 15417 18801 18802 18803
18811 3 7601 7636 15663
18812 1 18894
18813 2 7636 15667
18814 4 7637 15626 15667 18742
18815 11 7637 13869 13874 13900 13947 13948 13949 18832 18895 19029 19031
18816 4 13874 15387 18597 18897
18817 4 10298 10329 18597 18897
18818 5 18029 18640 18854 18901 18904
18819 3 7815 8307 18846
18820 3 8307 18641 18845
18821 6 8307 10488 14190 18641 18845 18847
18822 2 8307 18846
18823 4 8289 10493 18029 18854
18824 2 18038 18864
18825 4 7801 8315 18865 18909
18826 5 7802 8315 8325 10505 18865
18827 6 7812 7822 7839 8354 10524 10526
18828 6 8335 8352 10520 18164 18877 18879
18829 2 8364 18879
18830 2 8364 18879
18831 6 7636 10366 10367 20209 20221 20222
18832 5 7637 13900 15667 18815 18895
18833 2 18561 18897
18834 1 18897
18835 4 8702 10328 18560 18577
18836 2 18568 18897
18837 4 8702 8703 8884 10328
18838 1 10300
18839 9 10376 13839 18606 18611 18616 18617 20211 20212 20213
18840 13 7626 10304 10340 10343 10378 15640 18738 18841 18899 18900 20213 20214 20216
18841 11 10342 10343 10378 10395 10398 13839 14190 18739 18740 18840 18900
18842 4 10343 10345 10396 10398
18843 3 7863 7885 8287
18844 3 18641 18902 18904
18845 4 8307 18641 18820 18821
18846 6 8307 18641 18819 18822 18903 18904
18847 13 8306 8310 8312 10486 10487 10488 10489 10508 11452 14175 14190 18821 18913
18848 3 7894 8363 10543
18849 6 8284 15648 18638 18905 18906 20218
18850 2 7864 7888
18851 8 7886 7887 7888 8285 8286 10491 10492 18025
18852 4 7867 7891 8401 18024
18853 2 10494 18027
18854 15 8284 8288 8289 8511 10559 14190 18029 18638 18641 18818 18823 18901 18904 18906 18907
18855 4 7867 7891 8407 18030
18856 8 7890 7891 10494 18024 18026 18027 18030 18033
18857 4 8290 8296 18029 18904
18858 13 7792 7793 7890 8292 8293 8294 8295 8296 10494 10496 18027 18033 18904
18859 4 10498 18032 18034 18904
18860 6 7871 8297 8298 10497 10498 18031
18861 2 10500 18904
18862 3 7872 8302 10501
18863 11 7795 7796 8309 8314 8317 10502 10547 10548 18883 18904 18910
18864 6 7816 8307 10507 18038 18824 18904
18865 21 7801 7872 8300 8302 8303 8304 8305 8308 8315 8316 8325 8409 10490 10501 10503 10516 15373 18825 18826 18909 18910
18866 1 15373
18867 8 7809 7818 8334 10514 10516 10551 18891 18910
18868 4 7873 7875 8338 10518
18869 2 7874 15375
18870 3 7874 7875 10517
18871 5 8334 8340 10521 10551 18891
18872 6 7821 7840 8342 8354 10522 10524
18873 2 7892 10483
18874 7 8356 8358 8361 10528 10537 11863 14199
18875 8 7813 7842 8362 10539 10541 18051 18052 18166
18876 3 7892 10485 15378
18877 13 8341 8351 8352 8353 8393 10520 10553 10554 10558 18163 18164 18828 18912
18878 3 7829 10544 18167
18879 20 7817 7828 8323 8327 8335 8354 8364 10508 10520 10522 10540 10544 10549 18164 18167 18171 18828 18829 18830 18886
18880 2 8365 10544
18881 7 7895 8354 8363 8365 10541 10543 10544
18882 4 7831 7896 10556 18178
18883 5 10507 10550 18038 18863 18904
18884 5 8325 8336 10516 10557 15373
18885 3 7873 8336 15373
18886 6 10508 10522 18037 18038 18050 18879
18887 3 7874 7875 10517
18888 2 8336 10516
18889 2 8338 10518
18890 4 7823 8336 10518 10525
18891 18 7820 7823 7824 8334 8336 8357 10516 10521 10525 10536 10551 18045 18047 18048 18049 18160 18867 18871
18892 3 7791 7829 10544
18893 2 7814 10556
18894 5 7601 7636 13874 15667 18812
18895 5 13874 13900 15667 18815 18832
18896 1 18577
18897 16 7638 10300 10329 13874 15387 17887 18561 18568 18571 18576 18597 18816 18817 18833 18834 18836
18898 12 7619 7630 8528 8885 10373 13839 14662 14749 17870 17888 18724 18728
18899 3 7626 18738 18840
18900 5 10378 13839 18738 18840 18841
18901 4 18029 18640 18818 18854
18902 2 18641 18844
18903 2 18641 18846
18904 20 7795 8296 8307 10500 10507 18029 18033 18034 18641 18818 18844 18846 18854 18857 18858 18859 18861 18863 18864 18883
18905 3 8284 18849 20218
18906 4 8284 18638 18849 18854
18907 7 7863 7885 8284 8287 8288 8398 18854
18908 6 7886 8286 8288 8289 10492 10559
18909 2 18825 18865
18910 13 7818 8300 8309 8317 8322 10499 10502 10514 10516 18045 18863 18865 18867
18911 2 8341 10520
18912 1 18877
18913 4 11452 14175 14197 18847
18914 4 11005 14905 18990 19319
18915 2 28386 28508
18916 1 11035
18917 1 11005
18918 3 11127 28389 28510
18919 2 11006 28428
18920 3 11035 11141 11143
18921 1 18990
18922 1 28428
18923 1 18990
18924 2 11005 18990
18925 1 10934
18926 1 11143
18927 1 18990
18928 2 10934 19062
18929 2 11036 18991
18930 10 10833 10834 10835 10937 14895 14896 18991 19064 19065 19067
18931 1 11143
18932 2 11036 18992
18933 1 18992
18934 1 11036
18935 2 10835 18992
18936 3 10840 11039 11145
18937 2 10835 18993
18938 1 18993
18939 1 11039
18940 1 11039
18941 3 14896 18993 19073
18942 1 18997
18943 1 18997
18944 1 18997
18945 1 10839
18946 1 10839
18947 1 10839
18948 6 10938 14880 14881 18995 18996 19075
18949 1 10839
18950 3 11071 11140 13993
18951 2 18999 19079
18952 1 10839
18953 2 10839 10938
18954 4 10839 10939 18997 19082
18955 3 13993 14011 19002
18956 4 11052 19004 19006 19079
18957 1 14011
18958 1 14012
18959 3 11047 14011 19005
18960 1 14012
18961 1 14012
18962 1 14012
18963 4 11015 19008 19009 19010
18964 2 14012 19011
18965 1 19011
18966 1 19011
18967 2 10943 19013
18968 2 11015 19017
18969 3 10943 14012 19014
18970 2 14012 19352
18971 2 13994 19015
18972 6 10848 10944 10949 14028 19017 19022
18973 4 10860 11078 19019 19022
18974 3 13994 19015 19359
18975 5 13995 14023 19020 19359 19369
18976 2 14023 19371
18977 1 14023
18978 1 14023
18979 3 10956 14023 19385
18980 3 10958 14023 19384
18981 3 10960 10962 14023
18982 2 10964 14023
18983 5 10881 10961 14028 19021 19022
18984 1 14023
18985 1 14028
18986 2 13868 15913
18987 1 13868
18988 3 13866 13914 13933
18989 2 13868 13933
18990 7 11005 14905 18914 18921 18923 18924 18927
18991 4 10835 11036 18929 18930
18992 5 10835 11036 18932 18933 18935
18993 5 10835 14896 18937 18938 18941
18994 2 11041 11155
18995 4 10938 14880 14881 18948
18996 1 18948
18997 5 10839 18942 18943 18944 18954
18998 2 11041 11155
18999 3 11147 18951 19079
19000 2 11041 19081
19001 3 11044 11147 11156
19002 2 13993 18955
19003 3 10839 10939 19089
19004 4 11015 11042 11052 18956
19005 3 11047 14011 18959
19006 2 11052 18956
19007 1 11050
19008 7 11015 11043 11046 11048 11050 11052 18963
19009 2 11015 18963
19010 2 11015 18963
19011 5 10943 14012 18964 18965 18966
19012 1 10943
19013 2 10943 18967
19014 2 10943 18969
19015 3 13994 18971 18974
19016 2 11010 19142
19017 7 10848 10944 10949 11015 14028 18968 18972
19018 4 11009 11012 14018 19146
19019 2 10860 18973
19020 3 13995 14023 18975
19021 2 14028 18983
19022 6 10860 11078 14028 18972 18973 18983
19023 3 10864 14020 19178
19024 2 14883 19185
19025 2 10970 19200
19026 3 10982 19248 19253
19027 4 10981 11027 19253 19260
19028 3 10984 11027 19262
19029 1 18815
19030 1 13949
19031 2 13949 18815
19032 2 13901 19436
19033 3 13985 19422 19428
19034 5 10915 10995 19303 19304 19309
19035 2 13901 19436
19036 2 14907 19436
19037 7 13870 13872 14007 14900 14902 14907 19436
19038 5 13876 19432 19437 19438 19443
19039 4 14010 19431 19434 19440
19040 3 13878 19439 19442
19041 2 14043 19447
19042 2 13879 19447
19043 5 10928 13881 19448 19449 19457
19044 5 10924 13877 13881 14043 19459
19045 2 13881 19459
19046 3 13881 19458 19459
19047 2 11128 15919
19048 2 11128 11133
19049 1 11133
19050 1 11133
19051 1 11133
19052 3 11130 11133 11151
19053 1 11151
19054 1 15867
19055 8 11033 11131 15917 15918 15970 28387 28388 28492
19056 3 11128 11133 15919
19057 2 11132 15920
19058 1 11133
19059 3 11064 11065 11153
19060 4 11034 11037 11129 11132
19061 1 11037
19062 2 10934 18928
19063 2 10935 13841
19064 3 10937 13842 18930
19065 4 10834 10835 14896 18930
19066 4 11068 11137 11139 11147
19067 4 10937 14895 14896 18930
19068 1 11147
19069 2 11007 13845
19070 1 11139
19071 1 11007
19072 4 11138 11139 15930 15975
19073 4 10937 13842 14896 18941
19074 2 11068 11139
19075 4 10938 11007 14880 18948
19076 1 11147
19077 4 11051 11140 15875 15982
19078 3 11068 11147 13986
19079 5 11040 11147 18951 18956 18999
19080 2 11070 19337
19081 2 11041 19000
19082 3 10939 11149 18954
19083 2 10941 11070
19084 3 10839 10938 19336
19085 1 11041
19086 1 11041
19087 1 10941
19088 2 10953 11041
19089 4 10839 10939 11149 19003
19090 1 10953
19091 2 10953 11061
19092 1 11056
19093 1 11056
19094 2 11056 11160
19095 2 10941 11157
19096 1 11056
19097 1 10953
19098 1 10942
19099 1 10942
19100 1 10942
19101 1 11061
19102 1 10953
19103 1 10942
19104 3 10941 11070 19342
19105 3 10942 11150 19342
19106 1 10953
19107 3 11045 11061 11159
19108 1 10953
19109 1 13852
19110 1 10953
19111 1 10953
19112 3 11069 11161 13852
19113 2 11074 13852
19114 3 11051 11071 15983
19115 2 11053 11072
19116 1 11053
19117 1 11061
19118 1 11056
19119 1 11061
19120 1 11056
19121 1 11056
19122 1 11057
19123 1 11061
19124 1 11056
19125 1 11057
19126 1 11057
19127 4 11057 11059 13848 13992
19128 1 11057
19129 1 11061
19130 3 11075 13564 13848
19131 2 11010 11061
19132 2 11010 13563
19133 3 11008 11059 11075
19134 1 11010
19135 3 10850 15814 15815
19136 1 10948
19137 2 15688 15816
19138 1 10947
19139 2 10948 11010
19140 1 11010
19141 4 15686 15687 15689 15817
19142 3 11010 14015 19016
19143 1 11010
19144 1 11010
19145 1 11010
19146 4 11009 11012 14018 19018
19147 1 11010
19148 1 11010
19149 1 11010
19150 1 11012
19151 1 11012
19152 2 11010 15694
19153 2 11012 15701
19154 2 11012 14017
19155 1 11012
19156 1 11012
19157 1 11012
19158 2 10856 15700
19159 1 11012
19160 2 10861 15699
19161 1 11012
19162 2 11013 14018
19163 1 11011
19164 2 11012 15701
19165 1 11013
19166 2 11016 15705
19167 1 11011
19168 2 10864 11011
19169 4 10861 10955 15706 15823
19170 4 10868 10965 15708 15824
19171 3 10862 11013 14018
19172 3 10863 10864 14020
19173 2 10955 11015
19174 2 10965 11017
19175 2 11016 14883
19176 3 10865 10957 15825
19177 3 10959 11016 15829
19178 3 10864 14020 19023
19179 1 14020
19180 2 14020 14885
19181 1 14885
19182 1 10967
19183 1 14885
19184 3 10869 10959 15714
19185 4 11016 14883 14884 19024
19186 3 10872 10967 15715
19187 1 10965
19188 5 10870 10965 15717 15764 15831
19189 3 10872 15718 15765
19190 1 10966
19191 2 10875 15721
19192 2 10966 13966
19193 2 10876 13966
19194 4 10883 15719 15767 15834
19195 1 10967
19196 1 10968
19197 3 10831 10967 15721
19198 2 10880 15730
19199 2 10970 14888
19200 8 10968 10969 10970 11019 11021 14022 14888 19025
19201 2 10880 11022
19202 2 10973 11022
19203 5 10973 13969 14022 14888 19398
19204 1 10883
19205 1 10883
19206 1 10883
19207 3 10883 15729 15773
19208 5 13971 14893 14897 14898 19400
19209 1 10885
19210 5 10884 14890 14898 15837 15838
19211 1 15838
19212 1 15838
19213 1 15838
19214 4 13865 13971 13976 14893
19215 1 14893
19216 2 14893 15777
19217 2 15776 15838
19218 1 15777
19219 1 15842
19220 2 13976 14892
19221 2 10888 11025
19222 1 15777
19223 3 10885 11024 15840
19224 2 10888 15842
19225 1 14893
19226 1 14894
19227 1 14894
19228 2 14893 15777
19229 3 10433 14894 15841
19230 1 10888
19231 1 10888
19232 3 10888 15778 15842
19233 2 10888 11025
19234 4 10889 11026 15780 15843
19235 3 10889 15780 15843
19236 2 10889 10975
19237 2 10889 15781
19238 3 10890 10977 15782
19239 6 10889 10893 10974 10975 10977 11026
19240 2 10893 10977
19241 4 10890 10892 10977 15731
19242 4 10892 10893 10977 15731
19243 4 10891 10976 10978 14033
19244 4 10893 10894 15731 15845
19245 4 10893 11026 14031 15845
19246 2 15731 15845
19247 5 10897 10979 15785 15846 15847
19248 2 10982 19026
19249 3 10898 13984 14036
19250 1 10981
19251 2 10898 13996
19252 2 10979 13996
19253 5 10981 10982 11027 19026 19027
19254 1 13996
19255 1 14036
19256 3 10899 10986 13997
19257 4 10979 10980 15785 15847
19258 2 10982 14037
19259 5 10908 10986 15786 15787 15848
19260 4 10981 11027 13997 19027
19261 3 10906 11027 13998
19262 5 10982 10984 11027 14037 19028
19263 2 10985 13999
19264 2 10991 14000
19265 1 14000
19266 4 10908 10986 13999 15787
19267 6 10911 10987 10988 14000 15733 15797
19268 2 10989 15849
19269 1 14040
19270 1 14040
19271 2 10991 14001
19272 1 14040
19273 1 10992
19274 2 14001 15849
19275 1 14040
19276 4 10990 10992 11032 15858
19277 1 15849
19278 2 10992 15858
19279 1 15858
19280 2 14040 15858
19281 1 15849
19282 2 10917 14040
19283 1 11029
19284 1 10917
19285 1 11029
19286 6 10911 10912 10991 11028 11032 15854
19287 1 15853
19288 1 15853
19289 1 15853
19290 1 15853
19291 1 15853
19292 1 15853
19293 1 15853
19294 1 15853
19295 6 10913 10917 15850 15851 15852 15855
19296 1 10915
19297 1 10915
19298 1 10915
19299 1 10913
19300 5 10915 10994 11030 11031 15853
19301 4 10916 10998 11032 15858
19302 3 10913 10917 15855
19303 2 10995 19034
19304 1 19034
19305 1 15857
19306 2 10915 15857
19307 1 15856
19308 1 15857
19309 4 10832 10915 15857 19034
19310 5 13873 13950 14901 14907 19435
19311 3 13902 14907 19436
19312 6 10917 10999 15796 15803 15858 15859
19313 1 15803
19314 1 15801
19315 6 10919 10996 14903 15801 15804 15860
19316 1 14907
19317 3 13562 13567 13899
19318 4 28385 28459 28504 28509
19319 2 11005 18914
19320 4 11005 13912 28428 28459
19321 1 13842
19322 1 13845
19323 1 13843
19324 1 28428
19325 2 13845 13887
19326 2 13848 13885
19327 1 13990
19328 1 13990
19329 1 13990
19330 1 13990
19331 3 10938 11007 13988
19332 1 13990
19333 1 13989
19334 1 10938
19335 1 13990
19336 2 10938 19084
19337 2 11070 19080
19338 1 13990
19339 1 13991
19340 1 13990
19341 1 13991
19342 9 10841 11070 11073 11150 13848 13991 13992 19104 19105
19343 1 13921
19344 1 13921
19345 1 13993
19346 1 13993
19347 2 13993 14012
19348 1 13923
19349 1 13923
19350 1 13993
19351 1 13994
19352 2 14012 18970
19353 2 13993 14013
19354 1 14013
19355 1 14014
19356 3 10945 13994 14023
19357 4 13852 13924 15953 15954
19358 2 13860 15958
19359 5 13994 13995 14023 18974 18975
19360 2 13852 13892
19361 1 13892
19362 1 13561
19363 2 13860 13892
19364 1 13860
19365 1 13860
19366 3 13853 13860 15956
19367 2 13960 15958
19368 1 14023
19369 2 14023 18975
19370 1 14023
19371 2 14023 18976
19372 4 13857 13960 14019 15958
19373 3 13857 13954 15957
19374 1 13860
19375 2 13860 13953
19376 1 13860
19377 1 13860
19378 1 13561
19379 1 13860
19380 2 13860 13958
19381 1 14018
19382 3 13958 15886 15959
19383 4 13855 13857 13958 15885
19384 2 14023 18980
19385 2 14023 18979
19386 1 14023
19387 11 8412 13561 13562 13566 13567 13856 13862 13893 13899 14018 14020
19388 3 13858 13860 13961
19389 2 13860 15964
19390 4 10871 13859 14023 15965
19391 6 13862 13899 13911 13942 13943 13944
19392 2 13861 14023
19393 2 13868 14023
19394 1 14023
19395 1 14028
19396 5 13862 13863 13929 13930 14022
19397 2 13868 15890
19398 11 10973 13863 13864 13899 13911 13931 13945 13969 14022 14888 19203
19399 2 13868 13932
19400 7 13864 13865 13899 13969 13971 14898 19208
19401 1 14028
19402 1 14028
19403 2 13913 14028
19404 3 13866 13933 15966
19405 2 13866 15891
19406 1 14036
19407 1 14036
19408 4 13868 13983 14036 14037
19409 1 13868
19410 2 13868 15896
19411 2 13868 15897
19412 1 13868
19413 1 13868
19414 1 13868
19415 2 13868 14003
19416 1 13919
19417 2 13868 13920
19418 1 14003
19419 3 13868 13920 14002
19420 1 14003
19421 1 14008
19422 3 13868 13985 19033
19423 1 15906
19424 2 14010 15906
19425 1 14010
19426 1 14010
19427 1 14010
19428 4 13871 13985 14008 19033
19429 2 14010 15907
19430 6 13869 13949 13950 14005 14899 14901
19431 2 14010 19039
19432 3 13876 15908 19038
19433 1 13950
19434 1 19039
19435 1 19310
19436 12 13870 13874 13901 14004 14006 14007 14907 19032 19035 19036 19037 19311
19437 1 19038
19438 1 19038
19439 1 19040
19440 2 14010 19039
19441 1 13878
19442 3 13878 14010 19040
19443 2 13876 19038
19444 1 13878
19445 2 13879 14041
19446 2 13879 14042
19447 4 13879 14043 19041 19042
19448 1 19043
19449 1 19043
19450 2 11001 14042
19451 2 11000 14041
19452 2 10926 11000
19453 2 10927 11002
19454 1 11002
19455 1 11002
19456 2 11001 14042
19457 3 10928 13881 19043
19458 2 13881 19046
19459 4 13881 19044 19045 19046
19460 7 11251 11252 13571 13908 13909 14163 14922
19461 3 11253 11322 13909
19462 2 13909 14922
19463 3 11687 19496 19538
19464 1 14090
19465 1 14090
19466 3 11528 11546 14085
19467 1 11546
19468 1 11546
19469 1 11546
19470 2 11536 11546
19471 1 11546
19472 1 11546
19473 8 11530 11531 11532 11533 11534 11537 11538 14090
19474 3 11539 11540 11546
19475 1 11546
19476 2 11546 15984
19477 7 11316 11408 11409 11417 11420 11596 11599
19478 1 11421
19479 1 11421
19480 7 11418 11419 11420 11421 11426 11597 11600
19481 7 11358 11412 11428 11610 11612 15985 16028
19482 5 11357 11426 11427 11595 16027
19483 3 18615 19964 28578
19484 2 11321 11499
19485 5 10095 10791 14179 19968 20037
19486 1 14179
19487 4 14078 14179 14181 28667
19488 4 11328 14077 14178 14179
19489 2 14080 14184
19490 3 14078 14079 14181
19491 2 14080 14182
19492 1 14182
19493 4 11326 11328 14912 16043
19494 4 11327 14082 14182 16041
19495 1 19505
19496 1 19463
19497 1 19512
19498 2 19512 19540
19499 3 11687 19512 19515
19500 3 11546 11593 19523
19501 1 19525
19502 1 11546
19503 6 11541 11545 11546 11547 15984 19528
19504 1 15984
19505 2 11687 19495
19506 4 11515 19558 19561 19564
19507 6 11515 11734 11735 19558 19560 19565
19508 1 11687
19509 4 11687 19536 19537 19559
19510 1 11687
19511 1 14089
19512 9 11592 11685 11687 19497 19498 19499 19538 19539 19540
19513 2 11686 11687
19514 1 11686
19515 2 11687 19499
19516 1 11687
19517 1 11687
19518 3 11546 11689 19542
19519 1 11546
19520 3 11546 14089 19544
19521 5 11687 11688 14088 14089 19543
19522 2 11546 19542
19523 2 11546 19500
19524 1 11538
19525 3 11546 19501 19535
19526 1 11538
19527 1 11538
19528 2 11546 19503
19529 2 11544 11546
19530 4 14182 14250 16344 16345
19531 1 14185
19532 1 14185
19533 8 11517 11518 14182 14183 14191 14942 16345 16348
19534 2 14185 16349
19535 3 11535 11546 19525
19536 2 11687 19509
19537 2 11687 19509
19538 3 11687 19463 19512
19539 1 19512
19540 3 11685 19498 19512
19541 1 11687
19542 3 11546 19518 19522
19543 2 11688 19521
19544 2 11546 19520
19545 2 12662 19561
19546 1 19561
19547 1 19561
19548 1 19561
19549 2 11483 14272
19550 1 14273
19551 1 11483
19552 1 11483
19553 1 11483
19554 3 11486 14271 19566
19555 2 11515 14273
19556 1 19561
19557 2 11485 19566
19558 3 11515 19506 19507
19559 1 19509
19560 2 11515 19507
19561 10 11731 11733 12662 19506 19545 19546 19547 19548 19556 19564
19562 3 11484 11486 19566
19563 1 11483
19564 4 11515 11733 19506 19561
19565 3 11515 11735 19507
19566 5 11485 11486 19554 19557 19562
19567 3 15226 15228 16388
19568 6 15221 15223 15228 15239 15245 16383
19569 7 12835 12934 15225 15226 15227 15228 15229
19570 26 12507 12548 12557 12558 12560 12561 12587 12617 12624 12627 12689 12694 12695 12700 12713 12719 12742 12745 13104 13105 13109 15223 15239 15245 16522 20231
19571 6 12836 12837 12919 12934 17103 17105
19572 2 12836 17105
19573 4 12019 12088 12550 17551
19574 2 12713 16522
19575 31 12550 12670 12690 12714 12715 12716 12740 12746 12778 12779 12780 12781 12802 12804 12805 12806 12809 12879 12880 12968 13169 13170 13171 13173 13175 13176 13177 16227 19599 19622 19624
19576 41 11752 11838 12488 12502 12503 12504 12505 12506 12545 12547 12549 12550 12551 12552 12554 12556 12620 12621 12623 12625 12627 12641 12642 12671 12672 12673 12689 12690 12694 12744 12745 12746 12782 12809 13179 13181 19624 19638 19641 19642 19643
19577 15 11778 11779 11810 11903 11904 11978 12206 12232 12330 12453 12526 12561 12628 13184 14314
19578 2 28392 28484
19579 4 15302 15303 19627 28392
19580 5 11936 15334 15335 15336 15337
19581 5 11833 14355 15356 19603 19634
19582 6 11849 11954 12001 15286 15365 15366
19583 1 11942
19584 2 17050 18809
19585 3 11942 15147 17049
19586 6 12733 12961 16256 16427 17733 19635
19587 2 12734 19635
19588 3 12543 12735 16180
19589 5 12087 12735 12962 16184 19636
19590 9 12087 12736 12773 12963 16187 16265 19605 19606 19607
19591 6 12774 12800 12801 16200 19608 19609
19592 12 12736 12737 12739 12773 12774 12800 12801 12814 12964 12965 16193 19607
19593 2 12775 16209
19594 6 12739 12775 12801 12838 13228 16209
19595 10 12220 12738 12775 12815 12966 13228 16216 17551 17693 19611
19596 5 12803 12816 12817 17545 19618
19597 3 12740 12804 19623
19598 7 12776 12777 16521 19638 19639 19642 19643
19599 5 12746 12780 12806 12809 19575
19600 16 12501 12713 12717 12718 12719 12742 12745 12777 12782 12807 12808 16521 19639 19640 19641 19643
19601 2 11839 15289
19602 1 14318
19603 3 14355 15350 19581
19604 3 14318 15347 19633
19605 4 16187 16265 16423 19590
19606 2 12736 19590
19607 5 12773 16193 16265 19590 19592
19608 3 12774 12800 19591
19609 9 12800 12801 16193 16198 16200 16208 16276 16430 19591
19610 2 12801 16205
19611 6 12775 16204 16208 16216 16221 19595
19612 1 12775
19613 1 16222
19614 1 16222
19615 1 16516
19616 1 16222
19617 1 16222
19618 3 12803 16226 19596
19619 3 12815 12816 16221
19620 2 16235 16330
19621 1 16320
19622 4 12740 12802 12804 19575
19623 3 12740 12804 19597
19624 10 12809 16227 16233 16330 16331 16340 19575 19576 19625 19642
19625 4 16233 16320 16330 19624
19626 2 15302 28392
19627 3 15288 19579 28392
19628 1 15288
19629 1 15288
19630 1 15288
19631 3 11840 15287 15289
19632 2 11842 15291
19633 1 19604
19634 3 11833 14355 19581
19635 7 12543 12733 12734 16180 16256 19586 19587
19636 2 12735 19589
19637 3 12803 12818 12967
19638 4 19576 19598 19642 19643
19639 4 12777 16521 19598 19600
19640 2 12719 19600
19641 4 12745 12782 19576 19600
19642 6 16242 16521 19576 19598 19624 19638
19643 7 12776 12777 12782 19576 19598 19600 19638
19644 1 19668
19645 3 14475 19668 19669
19646 2 19669 19682
19647 1 19682
19648 3 14395 14475 19684
19649 2 14399 19686
19650 1 19685
19651 1 19685
19652 1 14387
19653 4 14386 14387 19684 19685
19654 2 14387 19671
19655 3 14388 19672 19686
19656 2 14399 19677
19657 1 19677
19658 1 19677
19659 6 14361 14366 14390 19675 19676 19677
19660 1 19679
19661 5 14370 14391 14432 19680 19687
19662 3 14358 14373 14428
19663 4 14358 14364 14374 14428
19664 1 14364
19665 7 12655 12658 12659 12660 14364 14402 19681
19666 3 12656 12662 19681
19667 2 28471 28475
19668 4 14475 19644 19645 28470
19669 4 14475 19645 19646 19682
19670 2 14387 19684
19671 2 14387 19654
19672 2 14388 19655
19673 2 11936 15295
19674 2 14388 14399
19675 2 14390 19659
19676 2 14361 19659
19677 6 14390 14399 19656 19657 19658 19659
19678 1 14361
19679 3 14370 14436 19660
19680 3 14391 14432 19661
19681 10 12655 12656 12659 12660 12661 12662 14377 14402 19665 19666
19682 4 14475 19646 19647 19669
19683 2 14399 28472
19684 6 14386 14387 14395 19648 19653 19670
19685 5 14386 14395 19650 19651 19653
19686 5 14388 14397 14399 19649 19655
19687 14 14357 14367 14369 14370 14392 14400 14421 14427 14432 14454 14461 14463 14480 19661
19688 3 9856 16532 19826
19689 1 19841
19690 1 19852
19691 6 9427 14648 14663 14816 18309 19858
19692 4 9661 18241 19756 19803
19693 1 18454
19694 3 18454 19763 20056
19695 3 14765 19811 19852
19696 5 9444 9458 14825 14826 19858
19697 4 9443 9448 19770 19854
19698 4 9446 9449 19773 19865
19699 4 9448 9457 19770 19865
19700 6 9452 9453 9455 9456 19773 19865
19701 2 9466 19807
19702 2 9466 19807
19703 2 9466 19807
19704 4 9465 10234 18508 19865
19705 3 9467 9471 19807
19706 3 10234 18508 19865
19707 2 19784 19865
19708 3 9487 19784 20067
19709 15 9463 9464 9466 9468 9469 9476 9479 9485 9488 9627 19782 19786 19807 19859 19865
19710 3 9630 14761 19806
19711 6 9489 9490 9630 10722 19806 20161
19712 3 9493 19807 19865
19713 6 9491 9629 10723 19783 19785 19820
19714 4 9495 19784 19865 20067
19715 9 9490 9496 9497 9501 9630 14761 19790 20162 20192
19716 5 9505 10734 19799 19863 20162
19717 10 7684 9492 9494 9498 9499 9501 9503 19785 19860 19862
19718 1 19799
19719 2 9510 19865
19720 7 9502 9510 9784 9889 19792 19821 19865
19721 4 18536 20067 20070 20098
19722 5 7686 17901 19799 19863 19864
19723 14 9509 9511 9514 9518 9521 9811 9858 18536 19730 19788 19789 19794 19865 20067
19724 8 9504 9515 9531 9888 9889 19731 19793 19865
19725 4 9544 14763 19796 19865
19726 6 9553 9637 9642 17901 19798 19868
19727 3 9623 18508 19865
19728 5 10233 18501 18504 19781 19860
19729 4 9493 19786 19807 19865
19730 3 9521 9811 19723
19731 4 9800 9888 9889 19724
19732 1 19801
19733 12 7717 9562 9564 9565 9567 10274 10276 10287 16523 19801 19815 19826
19734 1 19826
19735 3 9847 9856 19828
19736 4 14622 14626 14811 16533
19737 8 9583 10212 10808 10829 19802 19834 19841 19871
19738 6 9414 10802 10827 10828 19841 19872
19739 10 9082 9127 9416 9881 10619 10620 14627 14691 18302 19835
19740 4 9415 9417 14693 19841
19741 1 19818
19742 5 9128 10621 10622 10629 19836
19743 6 9074 9094 9128 10630 14786 14787
19744 8 7669 7672 9585 9591 9694 9698 18303 19818
19745 7 8800 9882 10828 18417 19837 19839 19841
19746 2 14751 19841
19747 3 9421 9882 19841
19748 9 9076 9096 9100 9419 9590 9593 10660 10669 19841
19749 9 8532 10204 14752 14753 14754 18427 18432 18433 19841
19750 6 9657 9658 17859 17860 19819 20195
19751 2 18450 19841
19752 4 9423 10216 19841 20023
19753 8 14642 14700 14701 14702 14703 18450 18452 19841
19754 1 18453
19755 3 10243 19841 20023
19756 8 9658 9659 9660 18241 18281 19692 19819 20195
19757 1 19845
19758 2 9602 19847
19759 2 9120 19847
19760 1 19851
19761 4 9611 9612 14715 19847
19762 3 9120 10692 18307
19763 22 8805 9109 9133 9424 9425 9426 9431 9603 9604 9605 10217 10243 14643 19694 19841 19842 19844 19845 19846 19849 19850 20056
19764 1 19855
19765 1 19855
19766 3 9433 9439 19855
19767 8 9111 9122 9430 10693 18307 19853 19854 20199
19768 2 8740 19865
19769 14 9441 9442 9445 9447 9607 9609 9610 9613 14651 14718 19851 19853 19865 20174
19770 7 9448 19697 19699 19854 19865 20174 20199
19771 2 8740 19865
19772 5 8740 10219 10228 18476 19865
19773 15 8740 8807 9450 9451 9452 9453 9456 14647 14651 14653 14654 19698 19700 19855 19865
19774 7 9454 10229 10230 18487 18741 19857 19865
19775 2 9619 19865
19776 3 9458 10245 19858
19777 5 14719 14720 14721 14722 19865
19778 3 14721 14722 19865
19779 4 8775 10223 15538 20139
19780 3 14724 14759 19860
19781 5 10231 18501 18684 19728 19860
19782 4 9463 9624 19709 19865
19783 5 9478 10723 19713 19820 20161
19784 11 9486 9487 9495 10224 10225 19707 19708 19714 19865 20067 20123
19785 9 9481 9484 9492 19713 19717 19808 19820 19860 20179
19786 4 19709 19729 19807 19865
19787 2 9500 19865
19788 2 19723 19865
19789 1 19723
19790 2 19715 20162
19791 3 14766 14820 19861
19792 4 9784 9889 19720 19821
19793 2 19724 19865
19794 5 9511 9858 18536 18540 19723
19795 10 7684 8541 9528 9860 14766 14767 14820 14821 14822 19861
19796 3 14763 19725 19865
19797 4 9554 9817 9861 14763
19798 1 19726
19799 32 7783 9512 9527 9533 9535 9539 9541 9546 9549 9551 9552 9638 9639 9640 9641 10736 10738 18754 19716 19718 19722 19863 19864 19866 19867 20162 20187 20188 20192 20194 20198 20200
19800 7 7847 9550 14833 18754 19822 19867 19869
19801 2 19732 19733
19802 3 10829 19737 19841
19803 1 19692
19804 5 14644 14714 18291 18309 19848
19805 2 9122 19852
19806 8 9630 14761 19710 19711 20161 20191 20192 20200
19807 28 8775 8808 9462 9466 9467 9471 9474 9477 9482 9485 9488 9493 10208 10221 10223 18477 18484 18492 19701 19702 19703 19705 19709 19712 19729 19786 19859 19865
19808 2 19785 19860
19809 2 9542 9889
19810 4 9542 9815 9860 9889
19811 3 14765 19695 19852
19812 2 7692 14765
19813 1 9030
19814 8 9030 9564 10271 10275 10283 10287 19823 19824
19815 3 10287 19733 19826
19816 7 9654 9847 9856 10287 14671 14673 19827
19817 10 9654 9805 9881 10287 14626 14632 14633 14682 14684 19827
19818 7 7658 7671 7672 7681 9698 19741 19744
19819 4 9658 19750 19756 20195
19820 5 9478 19713 19783 19785 20179
19821 3 9889 19720 19792
19822 6 7847 7848 8810 9819 9894 19800
19823 3 9029 10271 19814
19824 4 9564 16528 18362 19814
19825 3 16523 18642 18645
19826 13 9856 10287 16478 16523 16529 16532 18643 18644 18645 19688 19733 19734 19815
19827 4 9654 10287 19816 19817
19828 3 9847 9856 19735
19829 1 9877
19830 1 9880
19831 1 9880
19832 4 9877 9879 18263 18297
19833 4 9411 9698 9880 18260
19834 3 10212 19737 19871
19835 2 9127 19739
19836 2 9128 19742
19837 3 8800 10828 19745
19838 6 9094 10626 14692 14787 14788 14789
19839 3 8800 9882 19745
19840 7 9422 9882 10214 18439 18441 20021 20055
19841 80 8487 8532 9076 9094 9095 9096 9097 9100 9101 9109 9117 9124 9133 9418 9420 9422 9423 9587 9588 9589 9590 9598 9882 10212 10214 10215 10216 10243 10647 10648 10649 10660 10828 10829 14641 14642 14693 14694 14695 14696 14697 14700 14701 14702 14703 14704 14705 14712 14751 14752 14754 14755 14789 15553 18415 18433 18440 18450 18452 18457 18654 19689 19737 19738 19740 19745 19746 19747 19748 19749 19751 19752 19753 19755 19763 19802 19871 19872 20023 20119
19842 1 19763
19843 4 9110 9132 9600 9601
19844 3 9133 14643 19763
19845 13 10211 10217 10243 14645 14707 14709 14710 14711 18453 18455 18456 19757 19763
19846 1 19763
19847 10 9110 9120 9602 9608 9611 9612 14715 19758 19759 19761
19848 7 9080 14644 18267 18280 18291 18309 19804
19849 4 8738 8805 18466 19763
19850 4 9431 14649 15556 19763
19851 4 9613 14650 19760 19769
19852 11 7711 7713 9122 9437 14765 14817 18308 19690 19695 19805 19811
19853 9 9111 9121 9430 9606 9607 19767 19769 20174 20199
19854 9 7713 9122 9443 14824 18308 19697 19767 19770 20199
19855 16 8807 9433 9438 9439 9440 9614 9615 9616 9617 9618 14647 18468 19764 19765 19766 19773
19856 6 9849 9857 9884 18291 18306 18333
19857 2 10229 19774
19858 21 7851 9113 9444 9458 10245 10761 14648 14723 14757 14758 14825 14826 18290 18309 18497 19691 19696 19776 20176 20189 20196
19859 3 9485 19709 19807
19860 32 7684 7846 7852 10222 10231 10233 10236 10238 10239 10242 10758 10760 10762 14724 14726 14759 14760 14819 18499 18501 18504 18509 18521 18525 19717 19728 19780 19781 19785 19808 20161 20179
19861 4 14766 14820 19791 19795
19862 3 7684 9633 19717
19863 6 7686 9632 9634 19716 19722 19799
19864 5 9527 9637 17901 19722 19799
19865 102 8740 9441 9449 9454 9457 9465 9472 9473 9474 9475 9477 9482 9483 9493 9495 9500 9504 9506 9508 9509 9510 9515 9534 9544 9619 9621 9623 9784 9799 9800 9811 9859 9860 9861 9888 9889 10219 10220 10221 10223 10224 10225 10226 10227 10229 10230 10232 10234 10235 10237 10240 10241 10244 14651 14721 14722 14762 14763 14767 14798 18474 18488 18491 18508 18523 18532 19698 19699 19700 19704 19706 19707 19709 19712 19714 19719 19720 19723 19724 19725 19727 19729 19768 19769 19770 19771 19772 19773 19774 19775 19777 19778 19782 19784 19786 19787 19788 19793 19796 19807 20067 20174
19866 8 9530 9535 9539 9541 19799 20187 20188 20198
19867 5 7783 14833 18754 19799 19800
19868 5 9892 17876 17901 17903 19726
19869 2 9893 19800
19870 1 9902
19871 11 9412 9579 9580 9581 10212 10808 10825 10829 19737 19834 19841
19872 4 9413 10827 19738 19841
19873 5 8226 9985 10427 19932 19942
19874 3 9993 19922 19943
19875 2 10042 19938
19876 2 19922 28574
19877 3 19910 19922 28574
19878 4 10032 10042 10044 19995
19879 2 10044 19995
19880 4 7904 7905 8198 19902
19881 3 15461 19904 19941
19882 5 7906 8210 8241 17930 19941
19883 5 8210 8211 8213 10420 19941
19884 4 8214 10422 19915 19926
19885 1 19917
19886 2 8248 10423
19887 9 7911 7912 8219 8633 8915 9955 17935 17936 19917
19888 2 8219 8255
19889 6 9996 9998 17944 17945 19922 28574
19890 3 15497 19933 28574
19891 2 19922 28574
19892 2 10044 19995
19893 5 11250 18572 20031 20032 28578
19894 2 8229 10413
19895 2 8196 9910
19896 2 9916 19940
19897 19 7900 8196 8229 8628 9907 9908 9909 9910 9911 9912 9913 9915 9916 9918 10413 10414 17919 17920 19976
19898 2 9925 19940
19899 1 9924
19900 1 9924
19901 1 10415
19902 37 7900 7902 7903 7904 8197 8198 8199 8200 8206 8230 8231 8232 8233 8235 8237 9916 9917 9919 9920 9921 9922 9923 9924 9925 9926 9927 9928 9930 10414 10415 10416 17921 17922 17924 19880 19940 19945
19903 5 8206 8234 9930 9933 19945
19904 17 7906 8048 8209 8238 8239 8240 9932 9934 10417 10418 15461 17925 17927 17928 19881 19941 20054
19905 4 10423 10773 19916 19949
19906 6 10809 10810 10830 15513 19917 19988
19907 1 17942
19908 16 8225 8228 8259 8917 9973 9976 9977 9978 9979 9981 9987 10426 10428 17939 17942 19922
19909 1 17942
19910 3 19877 19922 28574
19911 4 7903 17923 17924 19944
19912 2 8198 8233
19913 6 7906 10418 10419 17928 17929 19941
19914 3 8912 8913 19946
19915 13 8214 8215 8912 9936 9937 9938 9942 10421 10422 10773 19884 19926 19946
19916 11 8216 8243 8913 9939 9941 9942 10423 10773 19905 19946 19947
19917 19 8218 8219 8249 8251 8253 8254 9953 9954 9956 10423 10424 10809 15513 17935 19885 19887 19906 19950 19951
19918 3 8255 17937 20063
19919 3 10425 17937 20063
19920 9 8221 8222 8223 8257 8916 15469 17937 17938 20024
19921 4 15497 19935 19937 28574
19922 19 8227 8228 9987 9993 9998 10428 15497 17941 17942 19874 19876 19877 19889 19891 19908 19910 19943 19952 28574
19923 2 7900 17920
19924 4 7907 8632 10420 17931
19925 3 8802 15461 19941
19926 6 8214 8804 10773 19884 19915 19986
19927 2 8217 10423
19928 2 8219 17936
19929 4 7914 8219 8255 17937
19930 2 8636 17937
19931 2 8226 17938
19932 7 8226 9970 10427 15469 15516 19873 19942
19933 2 19890 28574
19934 2 15497 28574
19935 2 19921 28574
19936 5 10004 10005 10042 19995 20068
19937 2 19921 28574
19938 3 10042 19875 20068
19939 5 7901 7902 17922 17924 19944
19940 8 9916 9925 19896 19898 19902 19945 19976 20135
19941 14 7906 8210 8213 8240 8802 10418 10419 15461 19881 19882 19883 19904 19913 19925
19942 6 9985 15495 15516 15560 19873 19932
19943 5 9993 15560 19874 19922 19952
19944 5 7901 17923 17924 19911 19939
19945 11 8206 9925 9929 9930 9931 9933 19902 19903 19940 20018 20135
19946 7 8912 8913 9941 9942 19914 19915 19916
19947 7 7908 8216 8242 8913 8914 17932 19916
19948 2 7908 8250
19949 4 8248 10423 10773 19905
19950 4 10423 10773 10809 19917
19951 14 8217 8218 8244 8245 8246 8247 8249 8250 8252 8253 10423 17933 17935 19917
19952 5 9991 15497 15560 19922 19943
19953 3 15460 19962 20032
19954 2 8732 8771
19955 1 19986
19956 3 8795 9845 20130
19957 4 8793 8795 20086 20131
19958 2 18418 20135
19959 2 18418 20053
19960 2 18482 20139
19961 3 9992 15496 15503
19962 6 15460 18572 19953 19995 20031 20032
19963 2 8789 20075
19964 5 18615 19483 20032 20112 28578
19965 2 20032 20112
19966 10 11499 15487 18574 18578 18584 18601 20032 20080 20105 20111
19967 6 8727 8766 8768 10093 20080 20111
19968 3 10095 19485 20037
19969 6 8789 10099 10104 20007 20008 20085
19970 4 16494 18620 20006 20087
19971 6 9200 9203 10132 18734 20017 20089
19972 3 8732 8771 20041
19973 2 8732 8771
19974 4 8802 16398 20043 20092
19975 4 8799 20043 20047 20092
19976 10 8797 9914 9916 10822 16395 18394 18398 19897 19940 20135
19977 1 20135
19978 4 8802 16524 18418 20135
19979 2 20046 20135
19980 2 8802 18418
19981 2 20054 20135
19982 3 18418 20051 20135
19983 3 8802 18418 20053
19984 1 20055
19985 3 18441 20055 20093
19986 8 8804 9948 10773 10809 15463 19926 19955 20019
19987 4 8739 8806 8807 20095
19988 11 9957 10205 10809 10810 10830 15513 18469 19906 20019 20096 20121
19989 4 9964 15513 15558 20063
19990 7 8809 10223 18500 20064 20066 20097 20124
19991 4 8809 15472 15521 20098
19992 1 20070
19993 2 10051 20070
19994 1 20031
19995 20 10006 10019 10025 10028 10042 10044 15453 15460 18548 18550 18558 19878 19879 19892 19936 19962 20027 20031 20068 20069
19996 1 8789
19997 1 8816
19998 3 8783 8791 18593
19999 8 8785 8786 8791 9831 18591 18592 18594 20078
20000 1 8791
20001 1 8791
20002 3 8790 8818 16527
20003 5 8767 8792 18614 20081 20129
20004 2 8785 20081
20005 2 8791 16490
20006 5 16494 16527 18620 19970 20087
20007 10 8784 8789 9281 9336 10084 10099 10101 15490 19969 20085
20008 7 8789 9245 9284 10104 18602 19969 20079
20009 8 8758 8794 9137 9138 9139 18623 20082 20087
20010 4 8794 9198 9246 18621
20011 4 8795 9289 20086 20134
20012 3 8645 9320 18626
20013 11 8139 8643 8795 9136 9283 9285 9321 10096 10108 20099 20102
20014 4 9139 9203 9213 10132
20015 1 8771
20016 10 8060 8138 8140 8141 8647 10104 10111 20085 20088 20133
20017 6 9178 10132 10168 18734 19971 20091
20018 2 19945 20135
20019 7 9948 9958 10205 10809 15463 19986 19988
20020 1 8802
20021 5 18441 18444 19840 20055 20093
20022 2 18665 20056
20023 7 10243 18445 18664 18667 19752 19755 19841
20024 5 8220 15469 17937 19920 20063
20025 2 8809 9969
20026 3 10035 10036 15523
20027 6 10050 15453 15460 15549 19995 20069
20028 9 10039 10040 10047 10056 10206 15487 15505 15526 15549
20029 3 10817 15487 20080
20030 2 8789 18716
20031 6 18558 18572 19893 19962 19994 19995
20032 25 10059 10067 11321 11499 11516 15460 15487 18572 18578 18589 18596 18601 19893 19953 19962 19964 19965 19966 20105 20106 20107 20109 20110 20112 28578
20033 3 10093 11499 20111
20034 1 8769
20035 2 8769 20113
20036 1 8729
20037 12 8729 8769 8771 10095 10117 10784 10791 18632 19485 19968 20113 20114
20038 2 8729 10791
20039 1 8771
20040 5 8729 8771 10791 10811 10814
20041 3 8732 8771 19972
20042 2 8732 8771
20043 13 8772 8773 8798 8799 16398 16481 16524 18384 18390 19974 19975 20092 20115
20044 1 20092
20045 3 8802 16481 16524
20046 2 19979 20135
20047 6 8799 8802 10826 16482 19975 20092
20048 3 8484 10829 14625
20049 2 8802 18418
20050 1 20135
20051 3 18418 19982 20135
20052 1 20135
20053 8 8802 18418 18419 18425 19959 19983 20103 20135
20054 9 8802 9932 15461 18416 18420 18424 19904 19981 20135
20055 14 8800 9882 10213 15507 18426 18428 18438 18441 19840 19984 19985 20021 20093 20118
20056 13 8763 8805 9944 10243 15508 18443 18447 18454 18665 18668 19694 19763 20022
20057 1 8807
20058 5 8740 8807 9943 20095 20120
20059 1 8807
20060 3 8775 15544 20139
20061 1 20096
20062 1 20096
20063 13 8220 8255 9964 10425 15449 15469 15558 17937 19918 19919 19989 20024 20138
20064 3 19990 20097 20124
20065 9 9968 9982 15449 15466 15467 15469 15470 15514 15516
20066 9 8809 9971 9974 10223 18500 18502 19990 20104 20122
20067 15 8809 9487 9975 18511 18515 18520 18536 19708 19714 19721 19723 19784 19865 20098 20123
20068 4 10042 19936 19938 19995
20069 5 10025 15453 18548 19995 20027
20070 26 9858 10021 10026 10045 10046 10051 15485 15487 15521 15522 15525 18536 18539 18541 18542 18546 18547 18551 19721 19992 19993 20098 20125 20126 20140 20141
20071 8 8789 10045 10053 10055 15483 15485 15525 15548
20072 3 8747 8789 18569
20073 3 8745 8789 9821
20074 3 8745 8789 18715
20075 2 8789 19963
20076 1 8786
20077 3 8791 9841 16490
20078 9 8785 8786 8788 8816 18590 18595 18610 18613 19999
20079 6 8750 8789 10083 18602 20008 20128
20080 17 8727 8766 8768 8782 10085 10804 10817 10818 15487 18603 18729 18731 19966 19967 20029 20108 20111
20081 9 8752 8785 8792 8816 9244 18614 20003 20004 20129
20082 3 8794 9137 20009
20083 2 8728 11321
20084 7 7693 8728 11321 18615 20112 28635 28664
20085 7 10099 10101 10104 19969 20007 20016 20133
20086 6 8793 8795 9845 19957 20011 20134
20087 11 8758 8794 9139 16494 16527 18620 18624 18734 19970 20006 20009
20088 7 8004 8060 8647 9284 10104 17946 20016
20089 4 9139 9203 18734 19971
20090 2 9146 9207
20091 5 10168 16494 18634 18734 20017
20092 8 8802 16482 19974 19975 20043 20044 20047 20117
20093 4 18441 19985 20021 20055
20094 5 8737 8763 8803 15509 15554
20095 14 8740 8774 8806 8807 18451 18459 18460 18462 18463 18464 18467 19987 20058 20120
20096 15 8809 9957 9958 9963 10205 15463 15513 15539 15545 15546 18469 19988 20061 20062 20121
20097 7 10223 15465 18494 19990 20064 20124 20139
20098 16 8809 10009 10021 15518 15521 15541 18518 18534 18537 18538 18546 19721 19991 20067 20070 20141
20099 8 8787 8795 8817 9169 9282 10096 20013 20130
20100 1 8795
20101 2 9320 10100
20102 3 9136 9283 20013
20103 3 8802 18425 20053
20104 3 10223 20066 20122
20105 7 10062 10066 10067 15487 18578 19966 20032
20106 1 20032
20107 1 20032
20108 2 18729 20080
20109 2 11499 20032
20110 2 11516 20032
20111 6 10093 11499 19966 19967 20033 20080
20112 6 11321 18615 19964 19965 20032 20084
20113 3 8769 20035 20037
20114 2 18632 20037
20115 8 8773 8798 10816 10824 16478 16532 18389 20043
20116 4 8482 8483 8486 14627
20117 5 8802 16482 18413 18414 20092
20118 3 8800 10213 20055
20119 11 8484 8485 8487 9420 9586 9588 10829 15552 15553 18654 19841
20120 4 8807 9943 20058 20095
20121 3 15513 19988 20096
20122 4 9974 10223 20066 20104
20123 4 9975 10224 19784 20067
20124 11 8809 9961 15464 15465 18489 18495 18506 18507 19990 20064 20097
20125 2 18541 20070
20126 7 8777 9814 10027 10045 15525 20070 20140
20127 2 8777 9817
20128 2 8789 20079
20129 4 8767 8816 20003 20081
20130 5 8787 8795 9845 19956 20099
20131 4 8793 8795 9845 19957
20132 4 9287 10102 10112 10783
20133 4 10101 10111 20016 20085
20134 9 8796 9289 9323 9324 9845 9874 10113 20011 20086
20135 27 8802 9925 9929 10822 16524 18398 18399 18402 18418 18419 18425 19940 19945 19958 19976 19977 19978 19979 19981 19982 20018 20046 20050 20051 20052 20053 20054
20136 4 8809 9959 15492 15493
20137 2 9964 15513
20138 5 8255 9964 10424 15513 20063
20139 20 8775 8809 9959 10223 15465 15492 15493 15501 15512 15538 15544 18481 18482 18483 18494 18496 19779 19960 20060 20097
20140 6 9785 9814 9858 18541 20070 20126
20141 5 10021 15522 18546 20070 20098
20142 2 10715 20161
20143 1 20161
20144 1 20161
20145 1 20161
20146 1 20161
20147 2 10742 20186
20148 9 10739 10740 20150 20161 20165 20166 20184 20186 20193
20149 3 10726 20161 20180
20150 7 10737 20148 20165 20166 20188 20193 20197
20151 3 10744 20166 20186
20152 3 10744 20164 20186
20153 7 7851 9113 10698 10700 10705 20176 20189
20154 2 7775 20177
20155 2 9123 20190
20156 3 10720 18272 18292
20157 3 10726 18311 20178
20158 5 7778 10576 10720 18275 18292
20159 7 7780 7781 10726 10731 18293 18770 20186
20160 2 10742 20186
20161 49 7844 7845 7846 7852 9114 9123 9478 10701 10702 10703 10704 10706 10714 10715 10716 10717 10718 10721 10723 10725 10726 10728 10730 10732 10733 10735 19711 19783 19806 19860 20142 20143 20144 20145 20146 20148 20149 20169 20173 20175 20178 20179 20180 20181 20184 20186 20190 20191 20200
20162 8 10734 10736 10738 19715 19716 19790 19799 20192
20163 2 10742 20186
20164 4 10744 20152 20166 20186
20165 7 20148 20150 20184 20188 20193 20197 20200
20166 16 7738 10741 10744 10747 10750 10763 18753 18765 20148 20150 20151 20164 20185 20186 20188 20201
20167 2 20188 20202
20168 3 10754 20188 20202
20169 1 20161
20170 1 20195
20171 2 18266 20195
20172 1 9113
20173 2 10702 20161
20174 6 9447 19769 19770 19853 19865 20199
20175 3 9123 20161 20190
20176 4 7851 19858 20153 20189
20177 10 7750 7775 10707 10711 10712 10714 10720 18293 18311 20154
20178 6 7751 10714 10726 18311 20157 20161
20179 5 9478 19785 19820 19860 20161
20180 4 10721 10726 20149 20161
20181 5 9114 10715 10717 20161 20184
20182 4 7752 7779 10726 18293
20183 4 7761 10565 10577 18312
20184 8 8639 8640 9114 20148 20161 20165 20181 20200
20185 8 7722 7781 10747 10763 18764 18770 20166 20201
20186 21 7721 10724 10726 10729 10731 10733 10735 10742 10743 10744 10763 20147 20148 20151 20152 20159 20160 20161 20163 20164 20166
20187 3 19799 19866 20198
20188 27 7738 7739 10745 10746 10748 10749 10751 10752 10753 10754 10755 10764 18754 18765 18766 18774 18775 19799 19866 20150 20165 20166 20167 20168 20198 20200 20202
20189 5 9113 19858 20153 20176 20196
20190 10 9123 10708 10709 10710 10712 10713 10714 20155 20161 20175
20191 5 10719 10727 19806 20161 20200
20192 7 10736 14761 19715 19799 19806 20162 20200
20193 3 20148 20150 20165
20194 2 19799 20200
20195 11 9597 17859 18266 18281 18291 18306 19750 19756 19819 20170 20171
20196 3 9113 19858 20189
20197 2 20150 20165
20198 4 19799 19866 20187 20188
20199 6 9111 19767 19770 19853 19854 20174
20200 11 9114 10727 19799 19806 20161 20165 20184 20188 20191 20192 20194
20201 6 9902 18764 18765 18779 20166 20185
20202 7 7739 7784 10764 18775 20167 20168 20188
20203 3 10434 15606 15608
20204 3 7971 10435 15608
20205 1 10435
20206 2 10435 15609
20207 16 7634 7972 7974 10292 10307 10308 10311 10356 10362 10436 10462 15609 15613 15615 15617 20220
20208 7 10293 10311 10312 15612 15617 15620 20220
20209 7 10313 10326 15621 15622 18831 20221 20222
20210 3 7620 10337 15635
20211 7 7621 10338 13839 15637 18608 18611 18839
20212 6 8623 10301 18604 18606 18616 18839
20213 12 7626 8623 10302 10304 10349 10376 10377 18616 18622 18627 18839 18840
20214 6 10339 10340 15640 15641 15642 18840
20215 3 8624 10343 15643
20216 4 10340 10343 15643 18840
20217 1 8398
20218 13 7858 7859 8283 8394 8395 10347 10348 10446 15648 15649 15650 18849 18905
20219 8 8625 10343 10344 10346 10396 15646 15647 20227
20220 4 7634 10311 20207 20208
20221 3 7636 18831 20209
20222 4 7636 10326 18831 20209
20223 1 14894
20224 2 14894 15604
20225 3 10341 10445 15645
20226 2 10344 15645
20227 5 8625 10341 10344 15645 20219
20228 5 16913 16914 16995 17119 17445
20229 5 12206 12882 12934 13185 13355
20230 10 12769 12771 12799 12882 12884 13185 13357 13360 15190 15193
20231 2 15223 19570
20232 3 13286 13294 13313
20233 8 12434 12445 13305 13306 13307 13308 13313 15195
20234 7 20239 20243 20244 22197 22799 22800 23213
20235 2 20244 23552
20236 6 20240 20244 20261 20264 20276 23420
20237 5 20238 20245 20246 20278 27930
20238 2 20237 20278
20239 4 20234 20243 20244 23589
20240 3 20236 20244 23420
20241 4 20244 20245 20264 22210
20242 4 20259 20271 20278 22223
20243 7 20234 20239 22798 22799 23405 23489 23589
20244 14 20234 20235 20236 20239 20240 20241 20264 22197 22951 23420 23552 23589 23592 23810
20245 8 20237 20241 20264 20278 22199 22210 22268 27930
20246 11 20237 20259 20278 21911 22202 22269 22270 22958 23053 23409 27930
20247 2 21907 22201
20248 1 20261
20249 2 20263 20281
20250 2 20262 20275
20251 4 20263 20266 20267 20281
20252 3 20270 20277 20281
20253 1 20267
20254 2 20265 20270
20255 5 20267 20268 20269 23423 23813
20256 1 20270
20257 1 20278
20258 1 20278
20259 5 20242 20246 20278 21911 22223
20260 5 20273 20274 20277 23600 27944
20261 6 20236 20248 20276 20280 23420 23590
20262 2 20250 20280
20263 10 20249 20251 20279 20280 20281 22951 22956 23336 23590 23813
20264 6 20236 20241 20244 20245 20276 20278
20265 1 20254
20266 2 20251 20281
20267 4 20251 20253 20255 23813
20268 3 20255 23423 23813
20269 3 20255 20277 23423
20270 8 20252 20254 20256 20277 20278 20280 20281 27939
20271 3 20242 20278 22223
20272 2 20278 27939
20273 6 20260 20277 20278 23563 23600 27939
20274 4 20260 23566 23600 27944
20275 1 20250
20276 3 20236 20261 20264
20277 8 20252 20260 20269 20270 20273 20281 27939 27944
20278 17 20237 20238 20242 20245 20246 20257 20258 20259 20264 20270 20271 20272 20273 22223 23563 23597 27939
20279 2 20263 23336
20280 5 20261 20262 20263 20270 23590
20281 7 20249 20251 20252 20263 20266 20270 20277
20282 3 20300 27905 27920
20283 1 27921
20284 2 20328 27920
20285 2 27921 28758
20286 1 27921
20287 5 20298 20299 27904 27918 28573
20288 1 20299
20289 1 20299
20290 1 20299
20291 2 20299 27918
20292 1 27918
20293 3 27918 28357 28758
20294 4 20300 20321 27905 28758
20295 1 20304
20296 1 20310
20297 2 20311 27284
20298 4 20287 27904 28369 28571
20299 6 20287 20288 20289 20290 20291 27918
20300 4 20282 20294 27905 27920
20301 3 20335 27908 27909
20302 2 27926 28367
20303 3 27913 27925 28359
20304 8 20295 27909 27921 27922 27923 28362 28363 28366
20305 1 27912
20306 1 27915
20307 3 27913 28359 28360
20308 1 28368
20309 1 27914
20310 4 20296 27910 27927 27928
20311 3 20297 27207 27284
20312 1 28001
20313 3 27904 28369 28752
20314 1 27918
20315 2 27918 28364
20316 2 27918 28364
20317 2 27918 28364
20318 1 28364
20319 1 28364
20320 3 27918 28364 28758
20321 3 20294 27905 28758
20322 2 27921 28758
20323 2 27921 28758
20324 2 27921 28758
20325 2 27921 28758
20326 2 27921 28758
20327 1 28758
20328 4 20284 27905 27921 28758
20329 2 27921 28758
20330 2 27921 28758
20331 3 27921 28362 28758
20332 1 27906
20333 2 27921 28362
20334 1 28758
20335 7 20301 28358 28361 28366 28753 28756 28758
20336 1 28359
20337 1 28367
20338 6 20800 20920 27907 27924 27926 28367
20339 3 20340 22407 22610
20340 4 20339 22080 22407 22610
20341 1 20355
20342 4 20348 20355 22022 23347
20343 6 20349 20353 20358 20381 22831 23348
20344 6 20350 20351 20355 20373 22022 23410
20345 2 20351 20374
20346 3 20350 20373 20385
20347 1 20352
20348 3 20342 20355 20357
20349 2 20343 20358
20350 6 20344 20346 20355 20356 20373 20385
20351 8 20344 20345 20374 22479 22567 23410 23943 23961
20352 10 20347 20354 20359 20372 22619 22839 22845 22923 23037 24678
20353 4 20343 20381 22831 23027
20354 7 20352 20372 20375 20389 22619 24198 24735
20355 6 20341 20342 20344 20348 20350 22022
20356 1 20350
20357 2 20348 20380
20358 3 20343 20349 20381
20359 5 20352 20372 22845 24678 24731
20360 4 20378 20403 20430 20461
20361 7 20362 20370 20388 20404 24307 24735 24777
20362 4 20361 20387 20388 20404
20363 3 20410 20429 20606
20364 5 20454 20469 24473 24474 24646
20365 4 20403 20412 20422 20430
20366 4 20382 20384 20387 24249
20367 2 20374 20386
20368 2 20387 20414
20369 2 20386 20392
20370 2 20361 20387
20371 2 20397 24471
20372 8 20352 20354 20359 20375 20389 20390 24314 24731
20373 4 20344 20346 20350 20385
20374 6 20345 20351 20367 20383 20386 23961
20375 8 20354 20372 20389 20390 24314 24536 24675 24735
20376 10 20405 20406 20416 20417 20424 24465 24537 24681 24732 24733
20377 9 20391 20406 20418 24256 24431 24465 24681 24698 24734
20378 6 20360 20430 20461 20504 20525 20527
20379 4 20412 20422 20423 20503
20380 1 20357
20381 7 20343 20353 20358 20425 23027 24248 24669
20382 2 20366 24249
20383 1 20374
20384 2 20366 20414
20385 4 20346 20350 20373 20413
20386 5 20367 20369 20374 20392 23961
20387 7 20362 20366 20368 20370 20404 24249 24735
20388 3 20361 20362 20404
20389 3 20354 20372 20375
20390 3 20372 20375 24314
20391 5 20377 20418 24431 24540 24698
20392 3 20369 20386 23961
20393 3 20441 20456 24314
20394 9 20550 20551 21079 21080 24231 24232 25228 25229 25285
20395 7 20408 20409 24256 24468 24469 24541 24752
20396 8 20523 20572 20585 23939 23972 24428 24445 26030
20397 11 20371 20409 24258 24312 24431 24469 24471 24622 24645 24646 24762
20398 7 20407 20428 20450 20523 23972 24431 24475
20399 4 20441 20456 24314 24785
20400 2 20430 20525
20401 2 20430 20525
20402 4 20410 20412 20429 20430
20403 6 20360 20365 20422 20430 20461 20503
20404 5 20361 20362 20387 20388 24735
20405 4 20376 20424 24537 24730
20406 4 20376 20377 24465 24681
20407 6 20398 20450 20451 20566 21330 24475
20408 5 20395 24253 24468 24541 24644
20409 6 20395 20397 24469 24541 24645 24781
20410 5 20363 20402 20421 20429 20430
20411 3 20455 20504 20525
20412 13 20365 20379 20402 20422 20423 20429 20430 20458 20473 20503 20516 20606 20608
20413 1 20385
20414 2 20368 20384
20415 3 24059 24681 24730
20416 1 20376
20417 1 20376
20418 3 20377 20391 24431
20419 2 23954 23957
20420 3 20426 24473 24761
20421 3 20410 20430 20525
20422 5 20365 20379 20403 20412 20503
20423 3 20379 20412 20503
20424 4 20376 20405 24681 24730
20425 4 20381 23027 24669 24722
20426 2 20420 24761
20427 3 20524 24430 24761
20428 2 20398 23972
20429 5 20363 20402 20410 20412 20606
20430 11 20360 20365 20378 20400 20401 20402 20403 20410 20412 20421 20525
20431 5 24194 24298 24404 24405 25343
20432 6 20440 20443 24296 24332 24398 24414
20433 4 21069 21486 24299 25292
20434 4 20597 27953 27954 27955
20435 5 24448 24983 27953 27955 27958
20436 3 20555 24437 24904
20437 3 20600 27953 27956
20438 3 20558 20598 24448
20439 3 20560 20600 24448
20440 18 20432 20555 20559 20561 20565 20599 20600 20602 24240 24296 24329 24331 24398 24414 24443 24904 24920 24984
20441 5 20393 20399 20456 20573 24314
20442 5 20465 20509 20531 20533 24705
20443 5 20432 24296 24297 24332 24336
20444 7 20471 20472 20480 20483 20516 20577 20613
20445 5 20509 20546 20614 20615 24950
20446 3 20546 21078 21261
20447 8 20467 20508 20535 20536 20546 20547 21261 24950
20448 8 20466 20493 20534 20538 20548 21073 24970 24980
20449 7 20513 20548 20549 21083 21229 21276 21407
20450 6 20398 20407 20495 20523 21327 21330
20451 5 20407 20566 21249 21330 21331
20452 2 20499 20524
20453 5 20468 20588 20590 20592 21333
20454 2 20364 20469
20455 8 20411 20501 20502 20504 20525 20526 24542 24979
20456 11 20393 20399 20441 20492 20496 20573 20575 21334 24314 24785 24985
20457 3 20487 20516 20529
20458 20 20412 20468 20470 20471 20474 20478 20480 20481 20483 20484 20488 20490 20516 20574 20578 20590 20592 20593 20606 20609
20459 3 20486 21251 21335
20460 3 21251 21260 24314
20461 21 20360 20378 20403 20482 20487 20489 20503 20504 20506 20515 20527 20530 20542 20586 20608 24962 24963 24966 24968 24979 25039
20462 8 20476 20482 20487 20491 20530 20571 24963 25879
20463 7 20479 20488 20491 20583 20584 20593 21259
20464 7 20518 20519 20544 24964 24969 24975 25880
20465 8 20442 20507 20531 20533 21071 21072 21078 21260
20466 11 20448 20493 20510 20518 20519 20532 20534 20544 20545 21073 21079
20467 6 20447 20535 20536 20537 21078 24316
20468 5 20453 20458 20481 20590 20592
20469 6 20364 20454 20589 24217 24474 24475
20470 4 20458 20590 20591 20606
20471 4 20444 20458 20483 20516
20472 5 20444 20480 20483 20568 20576
20473 6 20412 20489 20505 20516 20608 20610
20474 2 20458 20609
20475 4 20487 20516 20528 20610
20476 2 20462 20487
20477 4 20488 20491 20612 20613
20478 6 20458 20484 20578 20593 21077 21252
20479 2 20463 20488
20480 11 20444 20458 20472 20483 20488 20567 20568 20569 20576 20609 20613
20481 3 20458 20468 20590
20482 4 20461 20462 20530 24963
20483 8 20444 20458 20471 20472 20480 20567 20574 20576
20484 6 20458 20478 20592 21212 21215 21252
20485 1 20489
20486 3 20459 21251 24314
20487 17 20457 20461 20462 20475 20476 20489 20505 20506 20516 20517 20528 20529 20530 20571 20610 20611 20613
20488 13 20458 20463 20477 20479 20480 20490 20491 20569 20579 20593 20609 20612 20613
20489 7 20461 20473 20485 20487 20505 20506 20608
20490 4 20458 20488 20579 20593
20491 13 20462 20463 20477 20488 20571 20580 20581 20582 20583 20584 20613 21259 25879
20492 4 20456 20496 24785 24985
20493 5 20448 20466 20510 20520 24980
20494 1 20523
20495 3 20450 20523 21327
20496 3 20456 20492 24785
20497 1 20524
20498 4 20524 24262 24289 24430
20499 2 20452 20524
20500 3 20524 24262 24542
20501 1 20455
20502 2 20455 24979
20503 9 20379 20403 20412 20422 20423 20461 20515 20570 20608
20504 8 20378 20411 20455 20461 20525 20527 20542 24979
20505 4 20473 20487 20489 20610
20506 3 20461 20487 20489
20507 6 20465 20531 21076 21260 24264 24705
20508 3 20447 20546 24950
20509 9 20442 20445 20533 20546 20614 24227 24264 24705 24950
20510 6 20466 20493 20518 20520 24969 24980
20511 2 20539 20595
20512 3 20539 20595 21079
20513 2 20449 20549
20514 7 21866 22094 22119 22193 22729 22744 22752
20515 4 20461 20503 20570 20608
20516 14 20412 20444 20457 20458 20471 20473 20475 20487 20529 20577 20607 20610 20611 20613
20517 3 20487 20529 20613
20518 6 20464 20466 20510 20544 20594 24969
20519 7 20464 20466 20543 20544 21070 21079 25880
20520 3 20493 20510 24980
20521 3 21328 24716 25936
20522 2 21329 25936
20523 8 20396 20398 20450 20494 20495 20585 21327 23972
20524 9 20427 20452 20497 20498 20499 20500 24262 24430 24542
20525 8 20378 20400 20401 20411 20421 20430 20455 20504
20526 3 20455 24542 24979
20527 4 20378 20461 20504 20542
20528 3 20475 20487 20610
20529 5 20457 20487 20516 20517 20613
20530 4 20461 20462 20482 20487
20531 4 20442 20465 20507 24705
20532 3 20466 21073 21079
20533 5 20442 20465 20509 20546 21072
20534 3 20448 20466 21073
20535 4 20447 20467 24316 24950
20536 4 20447 20467 21078 21261
20537 2 20467 21078
20538 7 20448 20548 21073 21080 21084 21228 21262
20539 10 20511 20512 20550 20595 20603 20616 20618 21073 21079 21080
20540 4 20550 20617 20618 21080
20541 2 20551 21080
20542 3 20461 20504 20527
20543 3 20519 21070 21079
20544 6 20464 20466 20518 20519 20587 20594
20545 1 20466
20546 11 20445 20446 20447 20508 20509 20533 20615 21072 21078 21261 24950
20547 1 20447
20548 8 20448 20449 20538 21083 21228 21276 21304 24970
20549 4 20449 20513 21083 21407
20550 9 20394 20539 20540 20553 20616 20617 20618 21079 21080
20551 4 20394 20541 20604 21080
20552 3 20605 21080 24773
20553 2 20550 20617
20554 1 24446
20555 3 20436 20440 24904
20556 1 20600
20557 2 20600 24984
20558 2 20438 20600
20559 2 20440 20599
20560 4 20439 20600 24448 24921
20561 3 20440 20599 24984
20562 1 24984
20563 3 20601 24443 24449
20564 3 20601 24449 24921
20565 2 20440 24984
20566 5 20407 20451 20589 21331 24475
20567 2 20480 20483
20568 2 20472 20480
20569 2 20480 20488
20570 2 20503 20515
20571 4 20462 20487 20491 20613
20572 3 20396 24445 26030
20573 2 20441 20456
20574 2 20458 20483
20575 5 20456 21251 21334 24717 24985
20576 3 20472 20480 20483
20577 2 20444 20516
20578 3 20458 20478 20593
20579 2 20488 20490
20580 1 20491
20581 1 20491
20582 1 20491
20583 2 20463 20491
20584 3 20463 20491 21259
20585 4 20396 20523 21327 26030
20586 4 20461 24963 24968 25945
20587 2 20544 20594
20588 2 20453 21333
20589 4 20469 20566 21331 24475
20590 5 20453 20458 20468 20470 20481
20591 2 20470 20606
20592 7 20453 20458 20468 20484 21215 21227 21333
20593 8 20458 20463 20478 20488 20490 20578 21077 21259
20594 3 20518 20544 20587
20595 4 20511 20512 20539 21079
20596 1 24440
20597 1 20434
20598 1 20438
20599 4 20440 20559 20561 24984
20600 8 20437 20439 20440 20556 20557 20558 20560 24984
20601 3 20563 20564 24449
20602 2 20440 24984
20603 2 20539 20618
20604 1 20551
20605 2 20552 24773
20606 6 20363 20412 20429 20458 20470 20591
20607 1 20516
20608 6 20412 20461 20473 20489 20503 20515
20609 4 20458 20474 20480 20488
20610 6 20473 20475 20487 20505 20516 20528
20611 2 20487 20516
20612 2 20477 20488
20613 10 20444 20477 20480 20487 20488 20491 20516 20517 20529 20571
20614 3 20445 20509 24950
20615 3 20445 20546 24950
20616 3 20539 20550 20618
20617 3 20540 20550 20553
20618 6 20539 20540 20550 20603 20616 21080
20619 1 25343
20620 7 20654 20713 28576 28579 28661 28662 28681
20621 3 20670 21015 25223
20622 6 20633 21023 25450 25537 28054 28194
20623 9 25593 25745 28067 28068 28069 28145 28200 28201 28203
20624 3 25706 25748 28204
20625 5 20921 28087 28141 28204 28206
20626 6 20850 20851 20852 20923 20991 28146
20627 9 20852 20853 20854 20926 20991 20992 20993 20994 28146
20628 4 20714 21005 21007 28579
20629 5 20666 20830 21006 25247 28028
20630 2 21005 28579
20631 3 28022 28029 28579
20632 3 20670 25223 25655
20633 4 20622 20750 21023 28194
20634 10 20701 26080 26248 28045 28047 28048 28052 28172 28173 28197
20635 2 27174 28054
20636 14 20660 20661 20674 20748 20784 20785 20801 21023 21024 21025 26130 27174 28039 28054
20637 5 20643 20675 20706 28051 28053
20638 8 20706 20766 20767 20769 20790 20981 26253 26297
20639 5 20687 20773 20792 21030 21031
20640 4 20650 20690 26124 26140
20641 5 21010 26069 26433 28024 28026
20642 4 20669 26070 26434 28027
20643 6 20637 20706 20759 26229 28051 28174
20644 9 20675 20706 20754 20757 20764 21026 21027 28055 28198
20645 2 20706 20765
20646 1 20706
20647 2 20765 20978
20648 2 20706 20768
20649 1 26140
20650 5 20640 21036 26092 26124 26140
20651 7 20691 21036 26141 26142 26185 26427 28065
20652 7 20691 20692 21036 25290 26185 26309 28199
20653 4 20680 20681 21050 25396
20654 5 20620 20695 20713 28022 28661
20655 1 28019
20656 4 25218 28017 28018 28019
20657 2 20713 28022
20658 1 28019
20659 1 28020
20660 3 20636 20801 28039
20661 6 20636 20715 20748 26074 26412 28039
20662 9 20664 20800 20802 20803 20804 20919 28117 28182 28368
20663 2 20665 20805
20664 3 20662 20919 27205
20665 8 20663 20805 20944 20945 20950 27208 28118 28119
20666 5 20629 20830 21006 26070 26433
20667 3 20733 28020 28021
20668 2 28580 28584
20669 9 20642 20735 26070 26114 26115 26435 28028 28030 28035
20670 17 20621 20632 20697 20736 20737 21008 21013 21014 21015 21016 25223 25655 26071 28025 28034 28037 28041
20671 3 20744 25250 25538
20672 7 20745 20747 25250 25251 25666 26079 28170
20673 6 20749 20847 20973 25667 26080 28171
20674 2 20636 21023
20675 6 20637 20644 20706 28053 28055 28198
20676 7 20682 20834 21044 25257 25454 28057 28176
20677 8 20689 20772 21028 25458 28056 28058 28177 28178
20678 2 20718 25395
20679 4 20718 20970 21049 25395
20680 3 20653 21050 25396
20681 6 20653 20690 21050 25290 25396 26124
20682 6 20676 20834 21044 28057 28175 28176
20683 6 21044 25258 25284 25288 26132 28057
20684 2 20792 21029
20685 4 20773 20792 26085 26238
20686 5 20773 21030 26085 26133 26239
20687 8 20639 20776 21030 21031 26085 26086 26134 26246
20688 2 20843 28061
20689 10 20677 20835 20843 20970 21028 21029 21049 26088 28058 28061
20690 6 20640 20681 21050 26090 26124 26140
20691 4 20651 20652 21036 26185
20692 4 20652 26309 26428 28199
20693 5 25214 25377 25546 26147 26324
20694 3 25218 28016 28017
20695 3 20654 28022 28661
20696 1 20754
20697 2 20670 28025
20698 1 27040
20699 2 27169 28701
20700 11 20740 20836 20971 21022 27042 27043 27168 27169 27170 28582 28701
20701 3 20634 28047 28172
20702 3 20768 20979 20981
20703 5 20789 26989 27060 27179 27180
20704 2 20768 20789
20705 4 20789 26985 26989 27060
20706 28 20637 20638 20643 20644 20645 20646 20648 20675 20755 20756 20758 20759 20762 20763 20764 20765 20766 20768 20786 20787 20788 20838 20840 20981 25611 25669 27177 27178
20707 5 20780 20987 21048 26256 26308
20708 3 20844 26181 26350
20709 7 26180 26181 26349 26350 26459 26460 26479
20710 3 20908 26292 26350
20711 2 21043 25581
20712 4 21043 26095 26344 26380
20713 5 20620 20654 20657 28022 28579
20714 4 20628 21007 28022 28579
20715 3 20661 26074 28039
20716 3 20759 20838 28051
20717 3 20984 26253 27186
20718 5 20678 20679 20970 21028 25395
20719 2 26058 27234
20720 3 26057 26058 27234
20721 2 26059 27240
20722 2 26059 27240
20723 4 20811 26059 26107 27240
20724 4 20811 25309 26106 26108
20725 4 20811 26107 26108 27240
20726 4 25309 26060 26061 26108
20727 6 20812 26111 27102 27103 27243 27244
20728 4 27105 27165 28704 28706
20729 2 27106 27250
20730 2 25310 26062
20731 2 20813 26062
20732 3 26062 27396 28674
20733 9 20667 25653 26068 26069 26433 28020 28021 28023 28169
20734 3 21012 26113 28579
20735 3 20669 26070 28028
20736 3 20670 21014 28034
20737 11 20670 20831 21014 21016 21019 26071 26116 26117 26406 26409 28034
20738 2 27041 28751
20739 6 20831 21021 26077 26118 26120 26436
20740 5 20700 20971 27040 28582 28701
20741 16 20831 20832 21019 21021 26073 26075 26081 26121 26122 26126 26127 26177 26407 26410 26411 27044
20742 2 26081 26127
20743 3 25251 25666 28170
20744 4 20671 20972 25250 25538
20745 3 20672 25251 26079
20746 1 28170
20747 10 20672 20972 25250 25538 28043 28044 28046 28170 28195 28196
20748 8 20636 20661 20784 20785 21024 26082 26128 26412
20749 6 20673 20973 26080 26235 26248 28172
20750 5 20633 21023 26130 28054 28194
20751 2 25253 28050
20752 2 20837 28172
20753 2 20785 26438
20754 5 20644 20696 21027 26236 28055
20755 2 20706 25611
20756 2 20706 25611
20757 2 20644 21027
20758 3 20706 25611 25669
20759 9 20643 20706 20716 20838 26227 26228 26229 26230 28051
20760 4 20976 26983 27055 27056
20761 3 20788 20833 20978
20762 2 20706 20840
20763 2 20706 20840
20764 13 20644 20706 20976 20977 21027 26217 26231 26232 26233 26237 27176 27178 27180
20765 10 20645 20647 20706 20788 20833 20974 20975 20978 25288 25669
20766 8 20638 20706 20788 26083 26132 26249 26297 27181
20767 2 20638 20981
20768 10 20648 20702 20704 20706 20789 20840 20979 20981 27059 27177
20769 3 20638 20790 20981
20770 8 20790 20791 20980 20981 20982 20983 20984 27186
20771 4 20792 20835 21029 28059
20772 3 20677 21028 25458
20773 7 20639 20685 20686 20792 21030 26133 26238
20774 4 20792 20843 21029 21031
20775 2 20842 21047
20776 7 20687 21031 26089 26091 26123 26136 26246
20777 11 20842 20874 20875 21047 26134 26135 26242 26243 26245 26246 26255
20778 5 20842 20986 21047 26305 26424
20779 6 20794 20795 20877 26139 26422 26426
20780 13 20707 20795 20848 20849 20876 20987 20988 20989 20990 21047 26093 26256 26257
20781 4 21017 28029 28033 28580
20782 2 21020 27040
20783 3 21020 27039 27040
20784 3 20636 20748 21024
20785 7 20636 20748 20753 21024 26128 26131 26438
20786 2 20706 25669
20787 2 20706 25669
20788 8 20706 20761 20765 20766 20833 20978 25288 26132
20789 7 20703 20704 20705 20768 20981 27059 27060
20790 6 20638 20769 20770 20981 20984 26253
20791 4 20770 20981 20983 27186
20792 12 20639 20684 20685 20771 20773 20774 20841 21029 21031 26085 27064 28059
20793 4 20843 21031 21032 26123
20794 10 20779 26089 26091 26093 26123 26136 26138 26139 26422 26425
20795 11 20779 20780 20849 20877 20990 21035 21047 26093 26246 26422 26426
20796 2 26156 26342
20797 2 25352 26095
20798 3 25352 26164 26380
20799 7 20904 20917 25575 26173 26174 28255 28257
20800 10 20338 20662 20802 20803 20804 20805 20920 28367 28578 28663
20801 8 20636 20660 21023 25225 25450 28036 28038 28039
20802 5 20662 20800 28116 28367 28368
20803 2 20662 20800
20804 2 20662 20800
20805 6 20663 20665 20800 20944 25338 28663
20806 5 20944 25338 25397 26220 28120
20807 2 25422 28673
20808 10 25341 25418 25422 25423 25427 26057 26216 26226 27234 27240
20809 3 26107 27236 27238
20810 3 26107 27238 27240
20811 9 20723 20724 20725 26059 26104 26106 26107 26108 28674
20812 4 20727 26061 26111 27103
20813 2 20731 26062
20814 1 26062
20815 6 26061 27107 27365 27396 27421 28674
20816 6 25325 25691 25700 25737 26268 26309
20817 5 20845 26267 26355 26356 26373
20818 6 26066 26267 26269 26356 26358 26361
20819 2 26066 26361
20820 6 20845 26066 26270 26357 26360 26362
20821 4 20845 26066 26272 26363
20822 5 20846 26066 26366 26367 26368
20823 3 25325 26273 26371
20824 2 26067 26273
20825 1 26273
20826 2 28100 28156
20827 7 20855 20858 28098 28101 28152 28154 28159
20828 3 20858 28101 28154
20829 2 20858 28159
20830 9 20629 20666 26070 26112 26429 26430 28028 28191 28192
20831 9 20737 20739 20741 21019 21021 26118 26119 26409 26436
20832 2 20741 21021
20833 4 20761 20765 20788 20978
20834 3 20676 20682 21044
20835 4 20689 20771 21029 28058
20836 4 20700 27042 28033 28582
20837 5 20752 20973 28049 28052 28172
20838 5 20706 20716 20759 25611 28051
20839 2 20978 25288
20840 4 20706 20762 20763 20768
20841 2 20792 21031
20842 8 20775 20777 20778 21047 26242 26244 26301 26305
20843 16 20688 20689 20774 20793 21029 21031 21032 21033 21034 26123 27257 28060 28061 28064 28179 28181
20844 5 20708 20908 25349 26181 26350
20845 13 20817 20820 20821 25700 26066 26269 26270 26272 26356 26357 26359 26360 26373
20846 7 20822 25700 25729 26066 26272 26364 26368
20847 2 20673 25667
20848 1 20780
20849 2 20780 20795
20850 2 20626 28146
20851 2 20626 28146
20852 6 20626 20627 20923 20926 20991 25501
20853 3 20627 20992 28146
20854 3 20627 20992 28146
20855 6 20827 20925 28098 28147 28152 28159
20856 3 20928 20963 28151
20857 2 20928 28161
20858 5 20827 20828 20829 28154 28159
20859 4 20928 28106 28157 28161
20860 1 20996
20861 2 20934 20996
20862 2 20934 20996
20863 10 20929 20930 20931 20933 20934 20996 28112 28162 28163 28164
20864 6 20932 20934 20964 20967 20996 20997
20865 2 20967 20997
20866 3 20967 20997 20998
20867 2 20967 20998
20868 2 20968 21002
20869 2 20968 21002
20870 5 20934 20968 25131 28113 28165
20871 4 20968 28113 28165 28166
20872 2 20968 28166
20873 5 20935 20969 25211 28114 28168
20874 1 20777
20875 1 20777
20876 4 20780 20987 21045 21047
20877 3 20779 20795 26426
20878 3 25214 26147 26262
20879 3 26205 26334 26467
20880 5 20899 20901 25350 25382 25581
20881 2 26100 26344
20882 3 20915 21004 26490
20883 2 21004 26490
20884 4 21037 25311 26258 26441
20885 3 21037 26258 26477
20886 3 21037 25311 25377
20887 3 21037 25377 26478
20888 5 25377 26148 26149 26178 26453
20889 4 25215 26178 26332 26453
20890 4 20906 26156 26158 26202
20891 2 25349 26159
20892 1 26294
20893 4 20906 26158 26202 26294
20894 5 20906 26157 26159 26293 26460
20895 1 20906
20896 3 21038 26203 26294
20897 3 20906 21041 26294
20898 13 20906 21039 21040 21042 25349 25383 26159 26182 26295 26333 26334 26378 26465
20899 2 20880 25350
20900 3 25383 26334 26467
20901 5 20880 21043 25350 25581 25582
20902 3 26296 26336 26757
20903 2 25354 26183
20904 4 20799 20917 26172 28255
20905 1 21052
20906 16 20890 20893 20894 20895 20897 20898 21041 21042 26156 26157 26158 26159 26293 26294 26342 26460
20907 1 26338
20908 7 20710 20844 25349 26159 26292 26350 26460
20909 7 25383 26096 26161 26206 26296 26336 26467
20910 7 25383 26096 26165 26166 26167 26207 26344
20911 2 26097 26344
20912 7 21003 25352 26097 26098 26099 26344 26468
20913 4 26099 26100 26344 26468
20914 1 26168
20915 7 20882 21004 25352 26101 26168 26468 26490
20916 1 26173
20917 7 20799 20904 26173 26476 28255 28256 28258
20918 4 20951 20952 26222 28190
20919 5 20662 20664 27203 27205 28368
20920 6 20338 20800 27907 28115 28575 28578
20921 4 20625 28143 28204 28206
20922 3 20960 28144 28156
20923 6 20626 20852 25501 28089 28142 28146
20924 2 25468 25500
20925 6 20855 20961 28147 28148 28149 28150
20926 5 20627 20852 20991 20994 25501
20927 5 25468 25500 25504 25758 28208
20928 14 20856 20857 20859 20962 20963 28106 28108 28111 28151 28153 28155 28157 28160 28161
20929 3 20863 28112 28162
20930 4 20863 28112 28162 28164
20931 2 20863 20996
20932 2 20864 20996
20933 1 20863
20934 15 20861 20862 20863 20864 20870 20964 20965 20966 20967 20968 20995 20996 21002 25131 28112
20935 4 20873 20969 25211 28168
20936 3 28115 28575 28578
20937 4 20946 26220 28120 28122
20938 3 26278 28121 28186
20939 4 20948 26278 27215 28186
20940 3 20948 27214 27215
20941 2 27087 27207
20942 1 27206
20943 2 20950 27289
20944 10 20665 20805 20806 25338 26220 26274 26275 26276 28119 28120
20945 11 20665 20950 26279 27211 27212 27213 27289 27290 27291 28119 28183
20946 6 20937 26264 26277 28120 28122 28123
20947 1 27220
20948 14 20939 20940 26278 26337 27214 27215 27216 27217 27293 28124 28125 28187 28188 28189
20949 3 20953 27218 28190
20950 6 20665 20943 20945 27210 27286 28118
20951 1 20918
20952 1 20918
20953 12 20949 25401 25402 25403 26212 26222 26223 27218 27219 27223 27229 28190
20954 2 20955 27224
20955 4 20954 27092 27224 27300
20956 6 27092 27225 27226 27227 27228 27270
20957 6 26214 26224 27093 27229 27240 27272
20958 2 25418 26216
20959 2 26216 27240
20960 7 20922 25496 25571 28085 28086 28144 28156
20961 7 20925 25499 25572 25574 28096 28147 28149
20962 2 20928 28161
20963 8 20856 20928 25124 25209 25499 25574 28108 28151
20964 3 20864 20934 20996
20965 1 20934
20966 4 20934 25131 25204 28112
20967 10 20864 20865 20866 20867 20934 20995 20997 20998 20999 21002
20968 11 20868 20869 20870 20871 20872 20934 21000 21001 21002 28165 28166
20969 3 20873 20935 28168
20970 5 20679 20689 20718 21028 21049
20971 3 20700 20740 28701
20972 4 20744 20747 25250 25538
20973 7 20673 20749 20837 25253 25667 28049 28172
20974 1 20765
20975 1 20765
20976 4 20760 20764 26233 27057
20977 1 20764
20978 7 20647 20761 20765 20788 20833 20839 25288
20979 2 20702 20768
20980 1 20770
20981 10 20638 20702 20706 20767 20768 20769 20770 20789 20790 20791
20982 1 20770
20983 3 20770 20791 27186
20984 5 20717 20770 20790 26253 27186
20985 1 26234
20986 1 20778
20987 5 20707 20780 20876 21045 21048
20988 1 20780
20989 2 20780 26257
20990 3 20780 20795 26093
20991 5 20626 20627 20852 20926 28146
20992 4 20627 20853 20854 28146
20993 1 20627
20994 2 20627 20926
20995 2 20934 20967
20996 9 20860 20861 20862 20863 20864 20931 20932 20934 20964
20997 4 20864 20865 20866 20967
20998 3 20866 20867 20967
20999 1 20967
21000 1 20968
21001 1 20968
21002 5 20868 20869 20934 20967 20968
21003 3 20912 25352 26344
21004 5 20882 20883 20915 25352 26490
21005 3 20628 20630 28579
21006 6 20629 20666 25247 25652 25653 26433
21007 3 20628 20714 28579
21008 2 20670 25655
21009 2 28579 28580
21010 1 20641
21011 1 28580
21012 4 20734 26113 28579 28580
21013 2 20670 25655
21014 4 20670 20736 20737 28034
21015 2 20621 20670
21016 2 20670 20737
21017 4 20781 28033 28580 28582
21018 2 27040 28582
21019 5 20737 20741 20831 26116 26407
21020 5 20782 20783 27039 27040 28582
21021 6 20739 20741 20831 20832 26077 26126
21022 2 20700 27169
21023 8 20622 20633 20636 20674 20750 20801 25450 26130
21024 4 20636 20748 20784 20785
21025 2 20636 27174
21026 3 20644 28055 28198
21027 7 20644 20754 20757 20764 26236 26237 27175
21028 7 20677 20689 20718 20772 20970 25395 25458
21029 7 20684 20689 20771 20774 20792 20835 20843
21030 5 20639 20686 20687 20773 26085
21031 9 20639 20687 20774 20776 20792 20793 20841 20843 26123
21032 3 20793 20843 26123
21033 2 20843 28179
21034 2 20843 26123
21035 2 20795 26093
21036 10 20650 20651 20652 20691 25290 25544 26092 26124 26140 28065
21037 10 20884 20885 20886 20887 25311 25377 26258 26338 26477 26478
21038 3 20896 26203 26294
21039 4 20898 26203 26295 26378
21040 1 20898
21041 3 20897 20906 26294
21042 2 20898 20906
21043 12 20711 20712 20901 25382 25383 25581 25582 25583 26095 26160 26162 26344
21044 7 20676 20682 20683 20834 25257 25258 28057
21045 2 20876 20987
21046 1 26424
21047 9 20775 20777 20778 20780 20795 20842 20876 26246 26424
21048 2 20707 20987
21049 3 20679 20689 20970
21050 5 20653 20680 20681 20690 26090
21051 5 21052 25735 25781 28557 28570
21052 4 20905 21051 25735 28570
21053 3 21057 21364 27387
21054 4 21058 21364 27556 28328
21055 3 21435 28251 28296
21056 5 21434 21435 27411 28251 28328
21057 4 21053 21364 27387 27411
21058 4 21054 21364 27411 28328
21059 1 28707
21060 4 25889 25895 26580 26612
21061 6 25895 26581 26582 26612 26613 28707
21062 4 26582 26613 26616 28707
21063 6 25903 26583 26599 26618 27330 27438
21064 2 26585 28737
21065 2 25838 26652
21066 7 25266 25837 25838 25996 26511 26513 26652
21067 7 25840 25959 25997 25998 26652 26764 28307
21068 3 25840 25959 25998
21069 6 20433 21423 21486 24299 25888 28371
21070 3 20519 20543 21079
21071 3 20465 21078 21260
21072 4 20465 20533 20546 21078
21073 8 20448 20466 20532 20534 20538 20539 21079 21080
21074 2 21082 21251
21075 3 21082 21251 21260
21076 2 20507 21260
21077 7 20478 20593 21252 21253 21259 21295 25879
21078 12 20446 20465 20467 20536 20537 20546 21071 21072 21260 21261 24316 26033
21079 14 20394 20466 20512 20519 20532 20539 20543 20550 20595 21070 21073 24231 25880 25881
21080 23 20394 20538 20539 20540 20541 20550 20551 20552 20618 21073 21084 21219 21228 21263 21264 21275 21406 24773 24977 25261 25285 25843 25932
21081 6 21089 21149 21160 21161 21362 21392
21082 4 21074 21075 21250 21251
21083 5 20449 20548 20549 21228 21407
21084 5 20538 21080 21228 21262 21263
21085 5 21107 21115 21150 21176 21387
21086 6 21108 21110 21158 21166 21382 26603
21087 8 21101 21148 21154 21167 25212 26609 26695 27389
21088 8 21107 21109 21112 21114 21166 21385 21387 25262
21089 7 21081 21149 21151 21153 21160 21389 27357
21090 6 21341 21343 21348 21349 21404 28254
21091 2 21120 25262
21092 4 21119 21150 21394 25262
21093 6 21111 21113 21155 21168 25212 26696
21094 1 26711
21095 2 26652 26711
21096 3 21137 26708 26711
21097 1 21137
21098 3 21137 21170 26710
21099 2 21137 25837
21100 4 21162 21460 21482 25913
21101 4 21087 21148 21167 21392
21102 4 21243 21363 21388 25894
21103 3 21179 25914 26568
21104 1 21388
21105 1 21388
21106 9 21148 21149 21376 21378 21392 23858 23862 25115 25286
21107 6 21085 21088 21150 21387 21394 25262
21108 1 21086
21109 2 21088 21385
21110 2 21086 21382
21111 3 21093 21155 26696
21112 6 21088 21381 21383 21385 21386 26594
21113 6 21093 21168 26605 26668 26696 27391
21114 4 21088 21385 21387 26594
21115 4 21085 21176 21387 26592
21116 5 21152 21156 21361 27351 27355
21117 5 21172 26589 26690 27526 27545
21118 4 21213 26609 26668 27391
21119 4 21092 21150 21377 21379
21120 8 21091 21122 21124 21147 21380 25262 26537 26569
21121 2 27525 27545
21122 6 21120 21169 21380 26537 26597 26688
21123 7 21171 26787 27523 27524 27525 27531 27545
21124 6 21120 21147 21163 21179 25909 26569
21125 2 26788 28258
21126 2 26782 26786
21127 5 26570 26645 26783 26786 26790
21128 1 26719
21129 2 26503 26791
21130 1 27380
21131 2 26630 27380
21132 4 26630 26669 27379 27380
21133 1 26634
21134 1 26711
21135 2 26652 26711
21136 1 26652
21137 14 21096 21097 21098 21099 21170 25837 26508 26650 26652 26708 26709 26710 26711 26795
21138 3 21391 26710 26795
21139 4 25837 25845 26508 26509
21140 4 26521 26522 26575 26834
21141 3 25387 26175 26835
21142 9 21457 24278 24426 26523 26524 26553 26744 26748 26773
21143 1 26638
21144 4 26637 26639 26741 28235
21145 6 21175 21464 21482 25912 26639 26666
21146 7 21174 25897 25908 25910 25912 25917 26666
21147 8 21120 21124 25262 25892 25900 25909 25918 25920
21148 6 21087 21101 21106 21392 25212 25286
21149 5 21081 21089 21106 21389 21392
21150 9 21085 21092 21107 21119 21176 21379 21394 26591 26667
21151 2 21089 21389
21152 3 21116 21156 27351
21153 3 21089 21160 27357
21154 3 21087 25212 26609
21155 5 21093 21111 25212 26609 26696
21156 5 21116 21152 21243 21361 25894
21157 2 21386 26594
21158 6 21086 21382 21384 26595 26603 26604
21159 2 21388 27356
21160 5 21081 21089 21153 21362 27357
21161 3 21081 21362 21392
21162 7 21100 21460 21482 25891 25913 25914 25920
21163 3 21124 21179 25909
21164 3 25844 26538 26787
21165 6 25844 26536 26538 26568 26590 26692
21166 5 21086 21088 25212 25262 26603
21167 4 21087 21101 21392 26695
21168 4 21093 21113 25212 26605
21169 5 21122 26537 26597 26688 26694
21170 6 21098 21137 21391 25837 25848 26710
21171 5 21123 26787 27523 27526 27545
21172 6 21117 21235 26689 26690 27527 27545
21173 2 26548 26573
21174 8 21146 21484 21486 21489 25906 25910 26638 26666
21175 3 21145 25912 26666
21176 5 21085 21115 21150 26591 26667
21177 10 21486 26534 26566 26636 26660 26663 26697 26724 28371 28372
21178 2 21485 26638
21179 8 21103 21124 21163 25909 25914 26537 26568 26569
21180 3 24120 25352 25575
21181 4 26502 26786 26819 28258
21182 1 26681
21183 1 26681
21184 1 26681
21185 1 26681
21186 1 26681
21187 1 26681
21188 1 26681
21189 1 26681
21190 1 26681
21191 1 26681
21192 2 26681 27383
21193 3 26681 27341 27383
21194 2 26651 27344
21195 1 26651
21196 2 26634 26651
21197 1 26651
21198 2 26634 26651
21199 2 26634 26651
21200 1 26573
21201 1 26573
21202 1 26634
21203 5 26514 26548 26551 26573 26778
21204 1 26575
21205 3 21207 21209 21321
21206 3 21211 27451 28742
21207 17 21205 21209 21210 21211 21214 21281 21282 21284 21316 21319 21321 21413 21417 21426 21443 27416 27451
21208 3 21211 21337 28613
21209 4 21205 21207 21321 27416
21210 3 21207 21426 27451
21211 14 21206 21207 21208 21214 21293 21319 21322 21337 21417 21419 21443 27451 28613 28742
21212 2 20484 21252
21213 7 21118 26609 27360 27389 27390 27391 27490
21214 3 21207 21211 27451
21215 5 20484 20592 21227 21252 21333
21216 2 21408 21409
21217 2 21409 21410
21218 1 24363
21219 5 21080 21242 21264 21410 25843
21220 2 26062 26729
21221 3 27108 27402 27423
21222 5 26062 26729 27398 27400 27404
21223 3 26729 27401 27404
21224 3 26731 27369 28729
21225 4 26732 27369 27407 28729
21226 4 26732 27407 27408 27433
21227 3 20592 21215 21333
21228 10 20538 20548 21080 21083 21084 21262 21263 21275 21406 21407
21229 5 20449 21277 21296 21297 21407
21230 2 21461 26701
21231 1 21461
21232 2 21461 26704
21233 3 21243 21361 21363
21234 1 27391
21235 5 21172 26689 27528 27543 27545
21236 4 21265 26689 27533 27553
21237 4 21255 25215 25291 26539
21238 5 21255 26340 26539 26540 26814
21239 2 21255 26539
21240 4 26340 26494 26540 26814
21241 6 25349 26494 26498 26541 26642 26825
21242 6 21219 21410 24363 24977 25843 25931
21243 6 21102 21156 21233 21361 21363 25894
21244 4 27108 27251 27397 27402
21245 2 27406 27425
21246 1 27406
21247 3 27403 27405 27406
21248 2 27371 27406
21249 2 20451 21330
21250 1 21082
21251 14 20459 20460 20486 20575 21074 21075 21082 21260 21329 21332 21334 21335 24314 24717
21252 5 20478 20484 21077 21212 21215
21253 1 21077
21254 2 26694 27553
21255 9 21237 21238 21239 25291 25349 25378 26494 26539 26540
21256 2 21391 26510
21257 1 26510
21258 1 26510
21259 6 20463 20491 20584 20593 21077 25879
21260 10 20460 20465 20507 21071 21075 21076 21078 21251 24264 24314
21261 5 20446 20447 20536 20546 21078
21262 3 20538 21084 21228
21263 3 21080 21084 21228
21264 4 21080 21219 21275 21407
21265 4 21236 26689 26694 27553
21266 1 21391
21267 2 21391 26711
21268 4 21391 26510 26674 26711
21269 4 21299 21339 21347 28615
21270 4 21350 28588 28592 28616
21271 4 21343 21349 28254 28600
21272 3 28254 28600 28603
21273 2 28254 28604
21274 2 28254 28604
21275 4 21080 21228 21264 21407
21276 12 20449 20548 21304 21305 21306 21326 21405 24346 24362 24970 24980 25930
21277 4 21229 21297 21407 21408
21278 5 21321 21369 21413 27152 27416
21279 2 21321 27416
21280 2 21321 21413
21281 2 21207 21417
21282 2 21207 21417
21283 1 21417
21284 3 21207 21319 21417
21285 2 21319 21417
21286 4 21317 21345 27035 27157
21287 2 21372 21417
21288 3 21319 21373 21417
21289 2 21322 21417
21290 3 21322 21366 21417
21291 5 21320 21366 21417 27157 27375
21292 2 21322 21420
21293 3 21211 21322 21417
21294 2 21322 21420
21295 1 21077
21296 2 21229 21407
21297 3 21229 21277 21407
21298 3 21322 21395 28613
21299 7 21269 21338 21347 28594 28602 28613 28615
21300 4 21338 21347 21395 21397
21301 4 21375 21398 21477 28297
21302 11 21322 21324 21398 21401 21402 21403 21477 21478 21479 21480 28297
21303 4 21404 21480 28254 28297
21304 2 20548 21276
21305 2 21276 24346
21306 3 21276 24346 24363
21307 3 21441 28272 28274
21308 6 21441 26706 28270 28272 28274 28276
21309 5 21367 21411 26336 26379 26757
21310 1 21368
21311 1 27020
21312 5 21368 26206 26379 27018 27020
21313 1 27019
21314 4 21372 27149 27150 27153
21315 3 21372 21416 27021
21316 7 21207 21321 21365 21372 21390 21413 21417
21317 6 21286 21345 21372 21416 27022 27035
21318 2 21372 21417
21319 6 21207 21211 21284 21285 21288 21417
21320 4 21291 21366 21418 27375
21321 11 21205 21207 21209 21278 21279 21280 21316 21369 21370 21413 27416
21322 22 21211 21289 21290 21292 21293 21294 21298 21302 21346 21366 21395 21398 21400 21417 21418 21419 21420 21421 21422 21480 27375 28613
21323 5 21374 21375 21436 27375 28297
21324 4 21302 21478 21479 28297
21325 4 21402 21479 21480 28297
21326 2 21276 24362
21327 5 20450 20495 20523 20585 26030
21328 3 20521 24259 24716
21329 4 20522 21251 24717 25936
21330 4 20407 20450 20451 21249
21331 3 20451 20566 20589
21332 1 21251
21333 5 20453 20588 20592 21215 21227
21334 4 20456 20575 21251 24314
21335 2 20459 21251
21336 2 28596 28613
21337 5 21208 21211 28596 28613 28742
21338 5 21299 21300 21347 21395 28613
21339 3 21269 21347 28615
21340 2 21400 21480
21341 4 21090 21348 21404 21480
21342 6 21348 21350 21399 21400 21480 28588
21343 5 21090 21271 21349 21404 28254
21344 5 21351 21445 21446 28254 28595
21345 5 21286 21317 21372 21417 27157
21346 2 21322 21420
21347 8 21269 21299 21300 21338 21339 21397 21400 28615
21348 7 21090 21341 21342 21349 21350 21480 28600
21349 5 21090 21271 21343 21348 28600
21350 7 21270 21342 21348 28588 28589 28592 28600
21351 3 21344 21445 28595
21352 3 24279 25835 26740
21353 10 21356 21357 21358 24279 25829 26740 26796 26798 26803 26804
21354 4 21456 26726 26747 26839
21355 11 21439 21440 21441 21453 21456 21461 21474 26743 28248 28274 28275
21356 3 21353 24279 25829
21357 5 21353 21472 26699 26740 26796
21358 6 21353 25829 26798 26804 26830 26839
21359 10 21435 21441 21442 21483 24279 26640 26707 26716 28271 28273
21360 1 27354
21361 5 21116 21156 21233 21243 27355
21362 3 21081 21160 21161
21363 5 21102 21233 21243 21388 27356
21364 9 21053 21054 21057 21058 27387 27411 27556 27559 27808
21365 2 21316 21417
21366 6 21290 21291 21320 21322 21417 21418
21367 3 21309 21411 26757
21368 4 21310 21312 21411 26379
21369 3 21278 21321 21413
21370 2 21321 21413
21371 2 21415 27155
21372 16 21287 21314 21315 21316 21317 21318 21345 21412 21413 21414 21415 21416 21417 27152 27153 27155
21373 2 21288 21417
21374 4 21323 27375 28297 28307
21375 6 21301 21323 21398 21422 27375 28297
21376 2 21106 25115
21377 1 21119
21378 1 21106
21379 3 21119 21150 26591
21380 3 21120 21122 26597
21381 1 21112
21382 3 21086 21110 21158
21383 1 21112
21384 1 21158
21385 5 21088 21109 21112 21114 26594
21386 3 21112 21157 26594
21387 7 21085 21088 21107 21114 21115 25262 26593
21388 8 21102 21104 21105 21159 21363 25115 25894 27356
21389 4 21089 21149 21151 27357
21390 2 21316 21413
21391 12 21138 21170 21256 21266 21267 21268 25848 26510 26710 26711 26763 26795
21392 9 21081 21101 21106 21148 21149 21161 21167 26695 27389
21393 2 27409 27456
21394 4 21092 21107 21150 25262
21395 7 21298 21300 21322 21338 21397 21400 28613
21396 2 21404 21480
21397 4 21300 21347 21395 21400
21398 6 21301 21302 21322 21375 21422 21477
21399 2 21342 21480
21400 9 21322 21340 21342 21347 21395 21397 21480 28588 28615
21401 2 21302 21478
21402 4 21302 21325 21479 21480
21403 2 21302 21478
21404 7 21090 21303 21341 21343 21396 21480 28254
21405 1 21276
21406 2 21080 21228
21407 10 20449 20549 21083 21228 21229 21264 21275 21277 21296 21297
21408 2 21216 21277
21409 2 21216 21217
21410 3 21217 21219 21242
21411 4 21309 21367 21368 26379
21412 1 21372
21413 10 21207 21278 21280 21316 21321 21369 21370 21372 21390 27152
21414 1 21372
21415 3 21371 21372 27155
21416 4 21315 21317 21372 27022
21417 23 21207 21211 21281 21282 21283 21284 21285 21287 21288 21289 21290 21291 21293 21316 21318 21319 21322 21345 21365 21366 21372 21373 27157
21418 4 21320 21322 21366 27375
21419 2 21211 21322
21420 5 21292 21294 21322 21346 27375
21421 2 21322 28613
21422 4 21322 21375 21398 27375
21423 3 21069 21486 28371
21424 2 21427 27455
21425 4 27416 27417 27457 27459
21426 7 21207 21210 21428 27416 27448 27449 27451
21427 4 21424 27409 27417 27457
21428 4 21426 27449 27451 27462
21429 6 21433 21470 26787 27531 28251 28328
21430 1 27409
21431 3 26578 28254 28307
21432 2 28586 28606
21433 5 21429 21470 25844 26787 28306
21434 3 21056 28251 28328
21435 15 21055 21056 21359 21475 21476 21483 24279 25811 27384 27385 27410 27411 27795 28251 28296
21436 2 21323 28297
21437 5 28254 28597 28604 28606 28609
21438 3 28254 28586 28606
21439 8 21355 21441 21473 21474 24279 24318 26743 26746
21440 2 21355 21441
21441 12 21307 21308 21355 21359 21439 21440 24279 26706 28271 28272 28273 28274
21442 2 21359 28273
21443 2 21207 21211
21444 2 28254 28603
21445 5 21344 21351 28254 28595 28603
21446 3 21344 28254 28595
21447 2 28587 28604
21448 1 21482
21449 1 21462
21450 9 21454 21455 21481 25835 26699 26739 26740 26838 26842
21451 5 21458 21463 21469 26725 26742
21452 4 21457 21466 26802 26840
21453 3 21355 21461 28275
21454 7 21450 21481 25835 26699 26739 26797 26841
21455 4 21450 26699 26740 26838
21456 8 21354 21355 21474 26700 26726 26746 26747 28248
21457 11 21142 21452 21466 24278 25835 26524 26738 26744 26802 26822 26831
21458 5 21451 21463 21464 26742 26745
21459 2 26702 26737
21460 3 21100 21162 21482
21461 7 21230 21231 21232 21355 21453 26701 28248
21462 8 21449 21471 26702 26703 26712 28246 28247 28250
21463 4 21451 21458 26725 28239
21464 7 21145 21458 21468 21482 26639 26741 26745
21465 4 25835 26797 26836 26837
21466 4 21452 21457 26822 26840
21467 7 26637 26664 26698 26741 26742 26745 28308
21468 4 21464 26665 26741 26745
21469 2 21451 26742
21470 7 21429 21433 21471 26713 28250 28251 28306
21471 7 21462 21470 25832 26702 26712 28250 28306
21472 1 21357
21473 5 21439 24279 24318 25810 26746
21474 5 21355 21439 21456 26743 26746
21475 1 21435
21476 2 21435 27384
21477 4 21301 21302 21398 28297
21478 5 21302 21324 21401 21403 28297
21479 5 21302 21324 21325 21402 28297
21480 14 21302 21303 21322 21325 21340 21341 21342 21348 21396 21399 21400 21402 21404 28297
21481 3 21450 21454 25835
21482 11 21100 21145 21162 21448 21460 21464 25836 25897 25912 25913 28240
21483 4 21359 21435 26640 28296
21484 9 21174 21486 21487 21488 21489 21490 25906 25911 25919
21485 2 21178 26638
21486 13 20433 21069 21174 21177 21423 21484 21487 21490 25292 25919 26567 26638 28371
21487 2 21484 21486
21488 2 21484 25906
21489 3 21174 21484 25906
21490 3 21484 21486 25919
21491 3 26895 27605 27788
21492 6 21494 26846 26868 26874 26892 26900
21493 3 21583 21644 26892
21494 10 21492 21828 26055 26846 26849 26875 26890 26892 26900 26905
21495 2 21644 26893
21496 2 21680 26893
21497 1 28344
21498 1 28344
21499 1 21782
21500 1 21782
21501 2 21507 21782
21502 6 21507 21630 21693 21750 21782 27789
21503 1 21782
21504 4 21508 21782 21783 27791
21505 2 21713 28344
21506 1 28344
21507 3 21501 21502 21782
21508 1 21504
21509 5 21543 21725 27771 27820 27824
21510 3 21607 28340 28350
21511 2 28346 28350
21512 6 21557 21608 21609 21648 21812 21822
21513 2 28341 28353
21514 2 28346 28352
21515 5 21557 21595 21617 21768 28340
21516 4 21556 21610 28346 28350
21517 6 21594 28341 28345 28346 28351 28353
21518 3 21579 21648 21812
21519 2 26053 28341
21520 2 21767 21812
21521 3 21580 21690 21812
21522 2 21580 21812
21523 3 21563 21651 28341
21524 2 26053 28341
21525 4 21562 21601 21602 28341
21526 2 21580 21812
21527 1 28341
21528 1 28341
21529 2 21667 21812
21530 2 21619 28341
21531 1 28341
21532 1 28344
21533 2 21754 28344
21534 2 21632 28344
21535 1 28344
21536 2 21632 28344
21537 2 21539 28344
21538 1 28344
21539 2 21537 28344
21540 1 28344
21541 7 21571 21661 26884 27626 27627 27768 28340
21542 3 21724 27771 27819
21543 4 21509 27771 27820 27824
21544 3 21575 27771 27824
21545 4 21564 21811 21812 27836
21546 4 21564 21811 21813 27836
21547 2 26895 27788
21548 2 26895 27788
21549 2 26895 27788
21550 1 28340
21551 4 21593 21685 28340 28350
21552 2 21593 28346
21553 2 21595 28340
21554 2 21610 28350
21555 3 21610 21687 28350
21556 2 21516 28350
21557 6 21512 21515 21595 21608 21648 21768
21558 1 28341
21559 1 28341
21560 2 26053 28341
21561 2 26053 28341
21562 3 21525 28341 28354
21563 3 21523 21658 28341
21564 13 21545 21546 21615 21620 21665 21666 21782 21811 21812 21813 21814 27748 27836
21565 4 21630 21814 27789 27836
21566 2 21788 28344
21567 2 21782 28344
21568 2 21631 28344
21569 1 28344
21570 2 21782 28344
21571 4 21541 21639 21661 26884
21572 4 21737 21798 21800 27819
21573 4 21725 21761 27745 27771
21574 2 21784 27836
21575 8 21544 21725 27747 27750 27771 27824 27825 27827
21576 2 26864 26884
21577 9 21585 21637 21639 21697 21792 21830 21832 26862 26881
21578 1 27756
21579 5 21518 21648 21690 21768 21812
21580 8 21521 21522 21526 21690 21768 21807 21808 21812
21581 5 21619 21658 21782 28341 28344
21582 3 21638 21792 26852
21583 6 21493 21644 21680 21696 21828 26892
21584 2 26862 26883
21585 3 21577 21639 21697
21586 2 21683 21792
21587 5 21639 21832 26862 26864 26883
21588 1 27756
21589 2 27756 27817
21590 3 27688 27756 27817
21591 2 21799 27756
21592 14 21605 21639 21640 21641 21642 21643 21644 21683 21684 21700 21701 21702 21715 21834
21593 17 21551 21552 21606 21646 21662 21685 21803 27627 27628 27633 27769 27868 27886 27887 28340 28346 28350
21594 6 21517 27633 27786 28341 28346 28353
21595 9 21515 21553 21557 21608 21609 21645 21821 21822 28340
21596 2 27869 28341
21597 2 28341 28348
21598 1 28341
21599 1 28341
21600 2 28341 28354
21601 2 21525 28341
21602 2 21525 28341
21603 4 21784 21812 27754 27836
21604 2 21745 21812
21605 8 21592 21639 21643 21644 21661 21663 21684 28340
21606 2 21593 28346
21607 3 21510 28340 28350
21608 4 21512 21557 21595 21822
21609 15 21512 21595 21644 21663 21664 21717 21739 21740 21762 21763 21805 21812 21821 21822 28340
21610 11 21516 21554 21555 21654 21687 21688 21689 21708 28340 28346 28350
21611 1 21811
21612 2 26053 28341
21613 1 28341
21614 2 26053 28341
21615 2 21564 21811
21616 2 26053 28341
21617 8 21515 21667 21692 21706 21708 21768 21782 28340
21618 1 28341
21619 5 21530 21581 26053 28341 28344
21620 2 21564 21782
21621 2 21782 28344
21622 2 26053 28344
21623 5 27635 27664 27770 27771 27829
21624 2 21782 28344
21625 2 21782 28344
21626 1 28344
21627 2 26053 28344
21628 2 21782 28344
21629 2 26053 28344
21630 6 21502 21565 21779 21782 21814 27789
21631 3 21568 21782 28344
21632 8 21534 21536 21782 21820 27792 27850 28343 28344
21633 1 27855
21634 14 21734 21757 21758 21824 21827 27585 27586 27669 27792 27848 27849 27851 27852 27855
21635 1 26891
21636 1 26893
21637 1 21577
21638 13 21582 21674 21676 21681 21683 21699 21792 21793 21833 26852 26855 26891 26904
21639 17 21571 21577 21585 21587 21592 21605 21661 21683 21684 21697 21698 21701 21792 21832 21834 26864 26884
21640 1 21592
21641 5 21592 21682 21683 21715 21793
21642 1 21592
21643 3 21592 21605 21684
21644 38 21493 21495 21583 21592 21605 21609 21663 21677 21678 21679 21680 21681 21699 21703 21704 21705 21714 21715 21716 21717 21718 21793 21794 21797 21805 21831 26846 26853 26856 26860 26870 26878 26879 26880 26882 26887 26892 26893
21645 3 21595 21821 28340
21646 3 21593 21835 28350
21647 1 28341
21648 6 21512 21518 21557 21579 21768 21812
21649 2 28341 28354
21650 1 28341
21651 2 21523 28341
21652 2 28341 28353
21653 1 28341
21654 4 21610 21688 21708 28340
21655 3 21692 21708 28340
21656 3 21691 21782 28346
21657 4 21691 21708 21782 28346
21658 5 21563 21581 21782 28341 28351
21659 7 27604 27650 27653 27654 27655 27656 27792
21660 1 21833
21661 6 21541 21571 21605 21639 27768 28340
21662 3 21593 27627 28340
21663 4 21605 21609 21644 28340
21664 2 21609 21812
21665 2 21564 21812
21666 2 21564 21812
21667 7 21529 21617 21707 21768 21782 21810 21812
21668 2 27572 27647
21669 2 27572 27649
21670 3 27572 27573 27649
21671 1 27651
21672 4 26855 26876 26897 26898
21673 2 26855 26898
21674 2 21638 26904
21675 2 26855 26898
21676 3 21638 26855 26904
21677 2 21644 26893
21678 2 21644 26893
21679 2 21644 26893
21680 7 21496 21583 21644 21696 21829 26055 26893
21681 13 21638 21644 21699 21831 21833 26055 26850 26855 26893 26898 26901 26902 26903
21682 1 21641
21683 9 21586 21592 21638 21639 21641 21698 21701 21792 21793
21684 5 21592 21605 21639 21643 21834
21685 3 21551 21593 28340
21686 2 28346 28351
21687 2 21555 21610
21688 4 21610 21654 21708 28340
21689 2 21610 28346
21690 5 21521 21579 21580 21768 21812
21691 4 21656 21657 21782 28346
21692 4 21617 21655 21708 28340
21693 3 21502 27776 27789
21694 1 27668
21695 3 21783 27668 27791
21696 5 21583 21680 21828 21829 26055
21697 3 21577 21585 21639
21698 2 21639 21683
21699 5 21638 21644 21681 21793 21833
21700 1 21592
21701 3 21592 21639 21683
21702 1 21592
21703 1 21644
21704 1 21644
21705 1 21644
21706 1 21617
21707 2 21667 21812
21708 10 21610 21617 21654 21655 21657 21688 21692 21782 28340 28346
21709 1 21785
21710 1 21785
21711 1 21785
21712 1 21785
21713 4 21505 21785 27871 28344
21714 1 21644
21715 4 21592 21641 21644 21793
21716 1 21644
21717 4 21609 21644 21763 21805
21718 5 21644 21725 21797 21804 26861
21719 1 21799
21720 9 21735 21737 21795 21796 21799 21800 21801 26860 27688
21721 2 21799 27819
21722 4 21735 21799 21800 27819
21723 3 21761 21806 27745
21724 8 21542 21759 21801 21806 26860 26887 27771 27819
21725 19 21509 21573 21575 21718 21738 21745 21760 21761 21765 21784 21802 21812 26861 26887 27771 27822 27823 27824 27825
21726 2 21837 28341
21727 4 21836 21837 27871 28341
21728 1 21837
21729 1 21837
21730 3 21778 21788 28344
21731 2 21788 28344
21732 3 21788 26052 28344
21733 2 21782 21820
21734 7 21634 21757 21782 21819 21824 27792 27845
21735 4 21720 21722 21799 21800
21736 2 21799 27756
21737 6 21572 21720 21798 21800 21801 27819
21738 2 21725 21812
21739 2 21609 21812
21740 2 21609 21812
21741 2 21767 21812
21742 1 21812
21743 1 21812
21744 1 21812
21745 4 21604 21725 21784 21812
21746 6 21785 21837 21838 26053 27871 28341
21747 1 21787
21748 3 21787 28342 28344
21749 2 21788 28344
21750 2 21502 27789
21751 2 26895 27605
21752 2 26052 28344
21753 2 27605 27870
21754 2 21533 28344
21755 2 21790 21825
21756 2 27589 27792
21757 3 21634 21734 21824
21758 2 21634 27852
21759 2 21724 27771
21760 2 21725 26887
21761 7 21573 21723 21725 21806 26887 27745 27771
21762 2 21609 21812
21763 2 21609 21717
21764 1 28350
21765 3 21725 27821 27822
21766 1 28351
21767 3 21520 21741 21812
21768 11 21515 21557 21579 21580 21617 21648 21667 21690 21808 21809 21810
21769 1 21785
21770 1 21785
21771 1 21785
21772 1 21785
21773 1 26895
21774 1 27787
21775 2 21788 28344
21776 1 21788
21777 1 21788
21778 2 21730 21788
21779 1 21630
21780 3 26895 27771 27787
21781 1 27870
21782 48 21499 21500 21501 21502 21503 21504 21507 21564 21567 21570 21581 21617 21620 21621 21624 21625 21628 21630 21631 21632 21656 21657 21658 21667 21691 21708 21733 21734 21789 21790 21791 21812 21814 21815 21816 21817 21818 21820 21823 21824 21825 27792 27855 28343 28344 28346 28351 28352
21783 5 21504 21695 27668 27774 27791
21784 10 21574 21603 21725 21745 21812 27754 27755 27823 27832 27836
21785 14 21709 21710 21711 21712 21713 21746 21769 21770 21771 21772 26053 27871 28342 28344
21786 2 26053 28344
21787 5 21747 21748 26053 28342 28344
21788 12 21566 21730 21731 21732 21749 21775 21776 21777 21778 26052 26053 28344
21789 1 21782
21790 3 21755 21782 21825
21791 3 21782 21826 27855
21792 8 21577 21582 21586 21638 21639 21683 26852 26881
21793 6 21638 21641 21644 21683 21699 21715
21794 1 21644
21795 2 21720 26860
21796 2 21720 27688
21797 5 21644 21718 26859 26861 26887
21798 3 21572 21737 27819
21799 10 21591 21719 21720 21721 21722 21735 21736 27688 27756 27819
21800 6 21572 21720 21722 21735 21737 27819
21801 5 21720 21724 21737 26860 27819
21802 3 21725 26861 26887
21803 1 21593
21804 1 21718
21805 3 21609 21644 21717
21806 6 21723 21724 21761 26887 27745 27771
21807 1 21580
21808 2 21580 21768
21809 1 21768
21810 2 21667 21768
21811 6 21545 21546 21564 21611 21615 27836
21812 35 21512 21518 21520 21521 21522 21526 21529 21545 21564 21579 21580 21603 21604 21609 21648 21664 21665 21666 21667 21690 21707 21725 21738 21739 21740 21741 21742 21743 21744 21745 21762 21767 21782 21784 27836
21813 4 21546 21564 27748 27836
21814 5 21564 21565 21630 21782 27836
21815 1 21782
21816 1 21782
21817 1 21782
21818 1 21782
21819 2 21734 27845
21820 4 21632 21733 21782 27850
21821 4 21595 21609 21645 28340
21822 4 21512 21595 21608 21609
21823 1 21782
21824 4 21634 21734 21757 21782
21825 3 21755 21782 21790
21826 2 21791 27855
21827 2 21634 27848
21828 5 21494 21583 21696 26055 26892
21829 3 21680 21696 26055
21830 2 21577 26862
21831 2 21644 21681
21832 4 21577 21587 21639 26862
21833 4 21638 21660 21681 21699
21834 3 21592 21639 21684
21835 1 21646
21836 2 21727 27871
21837 7 21726 21727 21728 21729 21746 27871 28341
21838 2 21746 27871
21839 3 22080 22098 22722
21840 2 22081 22095
21841 2 22083 22095
21842 31 22030 22039 22040 22076 22077 22078 22079 22081 22082 22083 22084 22085 22086 22087 22088 22089 22090 22095 22096 22097 22340 22341 22342 22407 22691 22692 22722 22760 24299 24392 24424
21843 2 21885 21886
21844 3 21893 21894 21930
21845 2 21893 21930
21846 1 21893
21847 1 28523
21848 1 28523
21849 2 21888 21896
21850 3 21895 21897 21941
21851 2 21889 21898
21852 4 21889 21900 21901 21941
21853 4 21902 21903 21942 21943
21854 6 22023 22024 22025 22140 22236 22852
21855 4 21865 22036 22091 22908
21856 2 22189 22193
21857 5 22190 22192 22193 22248 22250
21858 3 21867 22131 22175
21859 6 21914 21915 22062 22561 22628 22676
21860 3 21872 22125 22227
21861 3 21884 22118 22726
21862 8 21872 21873 21882 22063 22125 22126 22176 22227
21863 14 22026 22031 22034 22067 22070 22144 22145 22146 22148 22150 22151 22163 22241 22244
21864 15 21886 21917 21918 22025 22027 22043 22068 22141 22142 22143 22147 22161 22168 22243 22330
21865 45 21855 22028 22029 22032 22033 22036 22037 22038 22045 22047 22049 22069 22072 22073 22074 22075 22091 22092 22093 22099 22101 22102 22149 22151 22153 22154 22155 22156 22157 22166 22167 22168 22169 22170 22172 22173 22179 22180 22181 22182 22242 22244 22246 22247 23138
21866 15 20514 22075 22094 22104 22116 22120 22121 22123 22128 22160 22187 22189 22193 22194 22248
21867 16 21858 22050 22058 22108 22110 22122 22123 22124 22131 22132 22178 22194 22503 22766 22928 23050
21868 3 22060 22132 22767
21869 1 22043
21870 5 22047 22102 22103 22104 22134
21871 1 22051
21872 4 21860 21862 22125 22227
21873 2 21862 22125
21874 4 21886 22025 22141 22236
21875 4 22427 22453 22516 22542
21876 4 22208 22209 22212 22279
21877 1 22201
21878 9 22010 22212 22213 22214 22215 22219 22271 22284 22301
21879 7 22221 22224 22238 22259 22273 22305 22306
21880 4 22230 22237 22238 22310
21881 2 22117 22205
21882 14 21862 21913 21915 22018 22176 22223 22226 22227 22228 22274 22287 22289 22309 22561
21883 2 21908 22205
21884 6 21861 21908 22117 22118 22205 22726
21885 1 21843
21886 23 21843 21864 21874 21906 21916 21917 22019 22020 22021 22141 22143 22230 22232 22234 22236 22276 22296 22317 22318 22319 22321 22322 22329
21887 2 21941 28523
21888 8 21849 21896 21897 21938 21941 21960 21978 28523
21889 9 21851 21852 21897 21898 21899 21900 21901 21938 21941
21890 2 21902 21985
21891 3 21903 21922 23192
21892 5 21930 21967 21998 22374 22391
21893 14 21844 21845 21846 21894 21904 21929 21930 21933 21954 21972 21995 22003 22375 22391
21894 6 21844 21893 21929 21930 21951 21998
21895 2 21850 21941
21896 2 21849 21888
21897 6 21850 21888 21889 21938 21941 21958
21898 3 21851 21889 21938
21899 2 21889 21941
21900 3 21852 21889 21941
21901 5 21852 21889 21921 21938 21941
21902 5 21853 21890 21942 21943 21985
21903 8 21853 21891 21922 21942 21943 21945 22813 23192
21904 6 21893 21930 22002 22003 22374 22391
21905 4 22356 22406 22610 24194
21906 3 21886 22329 26843
21907 14 20247 22201 22277 22430 22431 22432 22456 22457 22521 22544 22556 22557 22558 22956
21908 7 21883 21884 22118 22205 22316 22960 23413
21909 5 22450 22539 22806 22944 23190
21910 1 22461
21911 12 20246 20259 22061 22223 22360 22472 22474 22477 22498 22568 22958 23343
21912 3 22015 22483 22531
21913 9 21882 22011 22016 22018 22223 22433 22435 22554 22561
21914 4 21859 22483 22561 22676
21915 5 21859 21882 22227 22561 22628
21916 5 21886 22019 22020 22021 23415
21917 4 21864 21886 22329 22330
21918 4 21864 22043 22323 22330
21919 5 21975 22774 28523 28530 28548
21920 3 21964 21985 23109
21921 10 21901 21938 21940 21941 21962 21981 22778 23115 23192 26955
21922 8 21891 21903 21941 21945 21983 22779 23192 23194
21923 6 21944 22781 23241 28618 28619 28627
21924 6 21944 21947 22781 28618 28629 28631
21925 4 21950 21956 21967 21993
21926 2 21966 22794
21927 5 21968 21994 23483 23736 23769
21928 6 22001 23091 23127 23205 23207 23318
21929 10 21893 21894 21946 21948 21951 21973 21991 21993 21995 23202
21930 8 21844 21845 21892 21893 21894 21904 21998 22374
21931 3 21953 21957 22207
21932 6 21970 21974 22007 22197 23543 23576
21933 13 21893 21954 21955 21969 21972 22005 22006 23082 23133 23135 23167 23490 23745
21934 5 22007 22197 22263 23544 23722
21935 2 28525 28548
21936 2 28525 28548
21937 10 21960 21975 21976 22383 22774 23096 23100 28523 28537 28548
21938 11 21888 21889 21897 21898 21901 21921 21962 21978 21979 21980 23105
21939 3 21964 22778 23106
21940 8 21921 21963 21964 21982 22778 23107 23115 23168
21941 28 21850 21852 21887 21888 21889 21895 21897 21899 21900 21901 21921 21922 21958 21977 21983 22381 22382 22777 22801 23083 23085 23087 23093 23192 23360 28523 28526 28547
21942 8 21853 21902 21903 21985 23115 23192 23376 26955
21943 6 21853 21902 21903 21985 22813 23381
21944 4 21923 21924 22781 28618
21945 8 21903 21922 22780 22788 22813 23194 23392 23394
21946 7 21929 21991 21993 22787 23202 23309 23387
21947 6 21924 21990 22385 23119 28629 28631
21948 3 21929 21973 21993
21949 1 22794
21950 5 21925 21967 21973 21993 21998
21951 4 21894 21929 21973 21998
21952 4 21997 22207 22794 23204
21953 21 21931 21957 21992 21996 21997 21999 22196 22207 22262 22793 22795 22798 22815 22816 23009 23122 23204 23316 23392 23394 23395
21954 9 21893 21933 21995 22001 23086 23091 23404 23490 23743
21955 3 21933 22005 23745
21956 2 21925 21993
21957 4 21931 21953 21999 22207
21958 2 21897 21941
21959 4 23238 23287 23360 28546
21960 7 21888 21937 21978 23098 23100 23185 28523
21961 4 22778 23106 23186 23367
21962 5 21921 21938 21981 22778 23105
21963 3 21940 21982 23107
21964 12 21920 21939 21940 21982 21985 22778 23106 23107 23109 23115 23168 23371
21965 10 21984 21985 21988 22369 22809 22812 23111 23117 23193 23383
21966 8 21926 22206 22207 22794 22947 22953 23123 23391
21967 18 21892 21925 21950 21989 21990 21993 21998 22000 22372 22385 22387 22391 22787 23090 23119 23197 23209 28631
21968 7 21927 23573 23575 23736 23758 23769 26971
21969 3 21933 22005 23490
21970 4 21932 21974 22197 22263
21971 7 23134 23323 23495 23679 23693 23727 23777
21972 10 21893 21933 22006 22375 22396 22565 23135 23136 23245 23324
21973 6 21929 21948 21950 21951 21993 21998
21974 4 21932 21970 22007 22263
21975 4 21919 21937 22774 28523
21976 6 21937 22383 23097 23100 23359 24929
21977 2 21941 22777
21978 8 21888 21938 21960 23084 23098 23105 23185 23292
21979 2 21938 23105
21980 2 21938 23105
21981 2 21921 21962
21982 4 21940 21963 21964 23107
21983 6 21922 21941 22779 22807 23087 23192
21984 1 21965
21985 13 21890 21902 21920 21942 21943 21964 21965 22812 23109 23111 23115 23376 23381
21986 4 22787 23197 28631 28697
21987 3 22769 23531 23762
21988 1 21965
21989 3 21967 23197 28631
21990 4 21947 21967 23119 28631
21991 3 21929 21946 23202
21992 4 21953 23009 23314 23392
21993 9 21925 21929 21946 21948 21950 21956 21967 21973 22787
21994 5 21927 23396 23483 23575 23769
21995 6 21893 21929 21954 22790 23086 23202
21996 1 21953
21997 4 21952 21953 22207 23204
21998 7 21892 21894 21930 21950 21951 21967 21973
21999 3 21953 21957 22207
22000 4 21967 22391 23132 23209
22001 6 21928 21954 23091 23207 23400 23743
22002 2 21904 22391
22003 4 21893 21904 22375 22391
22004 1 22375
22005 7 21933 21955 21969 23490 23690 23745 23784
22006 2 21933 21972
22007 7 21932 21934 21974 22263 23493 23576 23722
22008 1 22432
22009 2 22463 22496
22010 3 21878 22212 22496
22011 2 21913 22435
22012 2 22018 22435
22013 6 22022 23272 23276 23344 23347 23410
22014 2 22017 22959
22015 5 21912 22483 22531 22551 22568
22016 1 21913
22017 4 22014 22302 22959 23349
22018 5 21882 21913 22012 22435 22561
22019 5 21886 21916 22322 23351 23415
22020 2 21886 21916
22021 5 21886 21916 22236 23286 23415
22022 6 20342 20344 20355 22013 23347 23410
22023 4 21854 22140 22236 23583
22024 8 21854 22065 22140 22636 22851 22852 22853 22895
22025 19 21854 21864 21874 22031 22068 22141 22144 22148 22161 22236 22241 22636 22637 22711 22852 22856 22858 22897 22899
22026 5 21863 22067 22070 22146 22903
22027 4 21864 22068 22148 22168
22028 11 21865 22074 22158 22166 22170 22245 22246 22645 22683 22871 22909
22029 2 21865 22173
22030 3 21842 22087 22340
22031 7 21863 22025 22067 22144 22162 22658 22858
22032 4 21865 22069 22092 22904
22033 3 21865 22069 22091
22034 5 21863 22150 22151 22866 22925
22035 1 22168
22036 5 21855 21865 22093 22908 22940
22037 5 21865 22073 22155 22168 22171
22038 9 21865 22139 22151 22152 22153 22165 22167 22172 22925
22039 2 21842 22760
22040 5 21842 22088 22340 22341 22343
22041 1 22323
22042 3 22099 22589 22962
22043 10 21864 21869 21918 22168 22323 22436 22437 22438 22684 22961
22044 4 22102 22104 22116 22134
22045 26 21865 22099 22100 22101 22179 22180 22181 22182 22247 22589 22591 22730 22821 22913 22914 22915 22964 22965 22966 22967 22968 23138 23142 23173 23246 23624
22046 1 22104
22047 13 21865 21870 22102 22103 22104 22964 23138 23142 23143 23171 23248 23464 23706
22048 2 22108 23706
22049 14 21865 22073 22099 22588 22962 22963 22973 23137 23139 23140 23223 23224 23226 23249
22050 6 21867 22107 22108 22110 22123 23464
22051 19 21871 22105 22106 22108 22109 22592 22731 22917 22974 22975 23147 23180 23252 23463 23626 23698 23706 23708 23710
22052 4 22733 23468 23629 23710
22053 3 22733 22974 23251
22054 10 22111 22112 22186 22325 22326 22327 22333 22334 22441 22442
22055 7 22732 22979 22989 22997 23156 23628 23712
22056 1 22997
22057 1 22997
22058 7 21867 22108 22400 22503 22822 23252 23254
22059 1 22505
22060 14 21868 22113 22114 22132 22135 22136 22137 22138 22444 22445 22502 22503 22509 22767
22061 9 21911 22477 22478 22553 22568 22611 22614 23029 23030
22062 3 21859 22628 22676
22063 8 21862 22125 22126 22631 22677 22680 22725 22740
22064 3 22118 22647 22960
22065 10 22024 22140 22635 22658 22709 22851 23583 23586 23587 25042
22066 2 22662 22860
22067 10 21863 22026 22031 22639 22658 22659 22660 22859 22896 22903
22068 5 21864 22025 22027 22148 22164
22069 9 21865 22032 22033 22091 22640 22662 22901 22902 22904
22070 8 21863 22026 22146 22150 22163 22664 22866 22903
22071 1 22151
22072 6 21865 22155 22156 22157 22169 22171
22073 10 21865 22037 22049 22157 22168 22171 22588 22643 22684 22872
22074 6 21865 22028 22173 22646 22871 23048
22075 8 21865 21866 22102 22116 22128 22173 22183 22718
22076 2 21842 22760
22077 2 21842 22691
22078 2 21842 22760
22079 4 21842 22688 22691 22692
22080 7 20340 21839 22081 22098 22407 22610 22722
22081 7 21840 21842 22080 22095 22098 22407 22722
22082 2 21842 22095
22083 4 21841 21842 22095 22722
22084 3 21842 22096 22722
22085 2 21842 22722
22086 2 21842 22097
22087 3 21842 22030 22340
22088 3 21842 22040 22340
22089 4 21842 22342 22691 23913
22090 2 21842 22342
22091 9 21855 21865 22033 22069 22667 22862 22901 22905 22908
22092 8 21865 22032 22149 22166 22642 22683 22869 22904
22093 4 21865 22036 22172 22940
22094 4 20514 21866 22128 22752
22095 7 21840 21841 21842 22081 22082 22083 22722
22096 3 21842 22084 22722
22097 2 21842 22086
22098 4 21839 22080 22081 22722
22099 7 21865 22042 22045 22049 22247 22589 22962
22100 3 22045 22589 22913
22101 2 21865 22045
22102 8 21865 21870 22044 22047 22075 22116 22134 22183
22103 2 21870 22047
22104 12 21866 21870 22044 22046 22047 22116 22121 22123 22134 22184 22185 23464
22105 2 22051 23708
22106 1 22051
22107 2 22050 23464
22108 8 21867 22048 22050 22051 22058 23252 23464 23706
22109 2 22051 23147
22110 3 21867 22050 22123
22111 2 22054 22326
22112 2 22054 22334
22113 3 22060 22138 22445
22114 3 22060 22138 22445
22115 3 22117 22127 23665
22116 6 21866 22044 22075 22102 22104 22184
22117 16 21881 21884 22115 22127 22176 22205 22261 22274 22726 22727 23433 23434 23446 23605 23606 23665
22118 10 21861 21884 21908 22064 22629 22647 22726 22727 22960 23414
22119 4 20514 22129 22193 22729
22120 2 21866 22187
22121 2 21866 22104
22122 7 21867 22130 22131 22194 22195 22671 22685
22123 7 21866 21867 22050 22104 22110 22194 23464
22124 4 21867 22131 22687 22928
22125 8 21860 21862 21872 21873 22063 22227 22725 22749
22126 6 21862 22063 22176 22727 22740 22887
22127 5 22115 22117 22726 22727 22935
22128 9 21866 22075 22094 22669 22718 22751 22752 22762 22941
22129 5 22119 22193 22729 22745 22753
22130 9 22122 22174 22191 22193 22195 22251 22671 22719 22745
22131 12 21858 21867 22122 22124 22175 22672 22685 22686 22687 22747 22755 22756
22132 8 21867 21868 22060 22503 22748 22758 22767 23050
22133 2 22401 22767
22134 4 21870 22044 22102 22104
22135 1 22060
22136 1 22060
22137 1 22060
22138 4 22060 22113 22114 22445
22139 3 22038 22165 22925
22140 5 21854 22023 22024 22065 23583
22141 4 21864 21874 21886 22025
22142 2 21864 22161
22143 2 21864 21886
22144 4 21863 22025 22031 22241
22145 2 21863 22241
22146 3 21863 22026 22070
22147 3 21864 22168 22243
22148 9 21863 22025 22027 22068 22164 22168 22241 22244 22249
22149 2 21865 22092
22150 4 21863 22034 22070 22866
22151 8 21863 21865 22034 22038 22071 22167 22244 22925
22152 4 22038 22172 22925 22940
22153 3 21865 22038 22167
22154 2 21865 22169
22155 5 21865 22037 22072 22169 22171
22156 3 21865 22072 22169
22157 4 21865 22072 22073 22171
22158 1 22028
22159 4 22173 22718 22871 23048
22160 2 21866 22189
22161 3 21864 22025 22142
22162 2 22031 22658
22163 2 21863 22070
22164 2 22068 22148
22165 3 22038 22139 22925
22166 4 21865 22028 22092 22683
22167 4 21865 22038 22151 22153
22168 13 21864 21865 22027 22035 22037 22043 22073 22147 22148 22243 22244 22249 22684
22169 5 21865 22072 22154 22155 22156
22170 2 21865 22028
22171 5 22037 22072 22073 22155 22157
22172 5 21865 22038 22093 22152 22940
22173 8 21865 22029 22074 22075 22159 22646 22718 23048
22174 4 22130 22191 22248 22251
22175 2 21858 22131
22176 7 21862 21882 22117 22126 22274 22727 22887
22177 3 22204 22227 22628
22178 1 21867
22179 2 21865 22045
22180 2 21865 22045
22181 2 21865 22045
22182 2 21865 22045
22183 2 22075 22102
22184 2 22104 22116
22185 1 22104
22186 1 22054
22187 2 21866 22120
22188 2 22193 22250
22189 5 21856 21866 22160 22193 22248
22190 3 21857 22193 22248
22191 4 22130 22174 22195 22248
22192 2 21857 22248
22193 14 20514 21856 21857 21866 22119 22129 22130 22188 22189 22190 22248 22250 22251 22745
22194 6 21866 21867 22122 22123 22195 22248
22195 5 22122 22130 22191 22194 22248
22196 5 21953 22207 22262 23589 23809
22197 14 20234 20244 21932 21934 21970 22263 22300 22800 23212 23543 23544 23549 23552 23773
22198 2 22300 22957
22199 3 20245 22268 27930
22200 2 22268 27930
22201 16 20247 21877 21907 22252 22264 22265 22266 22267 22277 22282 22283 22301 22956 23421 23423 23813
22202 6 20246 22210 22268 22269 22270 27930
22203 4 22958 23342 23409 23594
22204 3 22177 22227 22628
22205 11 21881 21883 21884 21908 22117 22260 22261 22291 22316 23452 23605
22206 4 21966 22953 23391 23408
22207 13 21931 21952 21953 21957 21966 21997 21999 22196 22794 22947 22954 23263 23589
22208 2 21876 22279
22209 4 21876 22279 22432 22521
22210 5 20241 20245 22202 22268 22269
22211 2 22255 22301
22212 10 21876 21878 22010 22253 22256 22279 22280 22281 22301 22496
22213 4 21878 22271 22301 23595
22214 4 21878 22271 22284 23797
22215 2 21878 22284
22216 3 22271 23445 23595
22217 3 22271 23445 23797
22218 2 23423 23557
22219 6 21878 22284 22302 23349 23601 23797
22220 1 23601
22221 9 21879 22272 22285 22304 22305 22959 23281 23349 23411
22222 1 23446
22223 24 20242 20259 20271 20278 21882 21911 21913 22258 22286 22287 22289 22303 22309 22433 22568 22952 23524 23525 23563 23565 23569 23597 23600 23664
22224 6 21879 22273 22305 22306 23411 23604
22225 4 22288 23428 23446 23603
22226 3 21882 22274 22309
22227 10 21860 21862 21872 21882 21915 22125 22177 22204 22628 22749
22228 2 21882 22274
22229 3 22295 23435 23454
22230 27 21880 21886 22292 22293 22294 22295 22296 22297 22310 22311 22312 22313 22314 22315 22317 22318 23435 23436 23453 23607 23610 23612 23613 23621 23637 23820 23831
22231 1 22321
22232 12 21886 22296 22319 22320 23438 23613 23614 23615 23618 23806 23831 23834
22233 5 22707 24951 25022 25041 25044
22234 4 21886 22321 22322 23440
22235 4 22322 23351 23619 23802
22236 12 21854 21874 21886 22021 22023 22025 23286 23415 23419 23442 23462 23583
22237 2 21880 22310
22238 14 21879 21880 22290 22298 22299 22306 22307 22308 22310 23607 23620 23817 23822 23836
22239 2 22291 23818
22240 3 22316 23284 23634
22241 5 21863 22025 22144 22145 22148
22242 1 21865
22243 3 21864 22147 22168
22244 6 21863 21865 22148 22151 22168 22249
22245 2 22028 22645
22246 2 21865 22028
22247 3 21865 22045 22099
22248 12 21857 21866 22174 22189 22190 22191 22192 22193 22194 22195 22250 22251
22249 3 22148 22168 22244
22250 4 21857 22188 22193 22248
22251 4 22130 22174 22193 22248
22252 2 22201 22301
22253 4 22212 22278 22279 22301
22254 1 22301
22255 2 22211 22301
22256 1 22212
22257 1 22301
22258 1 22223
22259 2 21879 22305
22260 1 22205
22261 2 22117 22205
22262 4 21953 22196 22798 23589
22263 5 21934 21970 21974 22007 22197
22264 1 22201
22265 2 22201 23813
22266 4 22201 22301 23421 23555
22267 3 22201 23421 23789
22268 6 20245 22199 22200 22202 22210 27930
22269 4 20246 22202 22210 23512
22270 3 20246 22202 27930
22271 8 21878 22213 22214 22216 22217 23445 23595 23797
22272 1 22221
22273 2 21879 22224
22274 7 21882 22117 22176 22226 22228 22309 23433
22275 2 23637 23820
22276 4 21886 22319 22321 23802
22277 3 21907 22201 22521
22278 1 22253
22279 6 21876 22208 22209 22212 22253 22521
22280 2 22212 22496
22281 1 22212
22282 4 22201 23423 23593 23813
22283 5 22201 23421 23423 23793 23812
22284 5 21878 22214 22215 22219 23797
22285 4 22221 23281 23411 23601
22286 1 22223
22287 2 21882 22223
22288 3 22225 23428 23446
22289 2 21882 22223
22290 2 22238 23822
22291 5 22205 22239 23452 23605 23818
22292 3 22230 23607 23824
22293 3 22230 23607 23820
22294 3 22230 23637 23820
22295 8 22229 22230 23435 23454 23456 23609 23612 23829
22296 4 21886 22230 22232 23613
22297 2 22230 23831
22298 2 22238 23822
22299 1 22238
22300 5 22197 22198 22957 23549 23552
22301 15 21878 22201 22211 22212 22213 22252 22253 22254 22255 22257 22266 23422 23445 23555 23595
22302 3 22017 22219 23349
22303 3 22223 23565 23600
22304 2 22221 23411
22305 6 21879 22221 22224 22259 23283 23411
22306 5 21879 22224 22238 23604 23817
22307 2 22238 23822
22308 2 22238 23817
22309 9 21882 22223 22226 22274 23431 23433 23525 23787 23788
22310 5 21880 22230 22237 22238 23607
22311 2 22230 23453
22312 3 22230 23453 23637
22313 3 22230 23436 23621
22314 1 22230
22315 2 22230 23436
22316 7 21908 22205 22240 23284 23413 23452 23804
22317 2 21886 22230
22318 2 21886 22230
22319 6 21886 22232 22276 23438 23611 23802
22320 2 22232 23615
22321 6 21886 22231 22234 22276 23440 23802
22322 11 21886 22019 22234 22235 23351 23440 23616 23617 23619 23802 23819
22323 11 21918 22041 22043 22330 22331 22438 23840 23842 23848 23849 23850
22324 10 22331 22439 23841 23843 23844 23850 23851 23852 23885 24083
22325 10 22054 22327 22328 22332 22333 22440 22441 22485 22486 23846
22326 6 22054 22111 22327 23846 23847 23857
22327 5 22054 22325 22326 23846 23857
22328 4 22325 22332 22333 22486
22329 5 21886 21906 21917 22330 26843
22330 11 21864 21917 21918 22323 22329 23848 24037 24038 24039 24060 26843
22331 8 22323 22324 22438 22439 23222 23850 23886 24820
22332 8 22325 22328 22440 22485 22486 22580 23174 24087
22333 7 22054 22325 22328 22441 22442 22486 22981
22334 9 22054 22112 22442 22443 22487 22604 22981 23150 23253
22335 4 22445 22491 23258 24635
22336 4 22445 22512 22513 24041
22337 2 22445 22513
22338 4 22340 22722 24191 24282
22339 5 22340 22352 24192 24283 24406
22340 11 21842 22030 22040 22087 22088 22338 22339 22343 22352 22357 22722
22341 8 21842 22040 22342 22343 22357 23861 23908 23936
22342 7 21842 22089 22090 22341 23861 23913 23914
22343 4 22040 22340 22341 22357
22344 3 22400 22489 23919
22345 4 22510 22736 22826 23259
22346 5 22503 22504 22512 23922 23923
22347 7 22402 22494 22505 22510 22738 23921 24446
22348 5 22507 23925 23928 23976 24111
22349 3 22354 22355 24370
22350 3 22355 22419 24370
22351 3 22355 22420 24352
22352 6 22339 22340 22357 24283 24355 24406
22353 3 22418 24359 24432
22354 11 22349 22415 22416 22417 22418 24338 24339 24359 24369 24370 25355
22355 7 22349 22350 22351 22419 22420 24370 24434
22356 8 21905 22406 22407 22610 24247 24360 24422 24424
22357 7 22340 22341 22343 22352 23861 23936 24355
22358 3 23933 23937 24355
22359 4 22379 22474 22497 23345
22360 3 21911 22472 22474
22361 2 22379 22528
22362 4 22477 22919 23023 23029
22363 8 22378 22379 22397 22477 22480 22919 23963 23993
22364 5 22398 22399 22480 22481 23031
22365 4 22399 23995 24532 24724
22366 3 28537 28548 28552
22367 4 22775 23096 23290 28537
22368 5 23188 23368 24383 24804 24939
22369 7 21965 23111 23193 23298 24812 24934 24935
22370 5 24133 24134 28622 28623 28625
22371 8 22385 22386 23089 23121 23124 23125 24134 24807
22372 8 21967 22385 22386 22387 23090 23125 23128 24807
22373 6 22388 22389 23128 23129 24134 24807
22374 4 21892 21904 21930 22391
22375 10 21893 21972 22003 22004 22391 22395 22396 23132 23216 23245
22376 4 22455 23217 23896 24080
22377 1 22497
22378 1 22363
22379 10 22359 22361 22363 22474 22477 22497 22499 22528 23345 23963
22380 6 22399 23951 23955 23995 23996 24535
22381 4 21941 22801 23083 28540
22382 3 21941 22801 28547
22383 5 21937 21976 23096 23097 23362
22384 4 23088 23089 24134 28629
22385 9 21947 21967 22371 22372 23089 23119 23121 23125 28629
22386 4 22371 22372 23125 24807
22387 4 21967 22372 23128 23209
22388 5 22373 23129 24134 24135 28657
22389 4 22373 23128 23129 23209
22390 10 23129 23131 23208 23209 23210 23211 24077 24079 24574 28657
22391 10 21892 21893 21904 21967 22000 22002 22003 22374 22375 23132
22392 3 23130 23132 23209
22393 1 23132
22394 9 22562 23132 23214 23215 23216 23217 23245 24071 24137
22395 2 22375 23245
22396 5 21972 22375 22458 22565 23245
22397 4 22363 22480 23963 23993
22398 5 22364 22480 22481 23962 23994
22399 14 22364 22365 22380 22481 22835 22920 23012 23031 23955 23962 23995 23996 24532 24724
22400 9 22058 22344 22489 22503 23254 23919 24102 24481 24909
22401 7 22133 22490 22509 22767 22823 23920 24322
22402 3 22347 22510 23921
22403 7 22491 22493 22511 22737 22826 22827 23229
22404 5 22506 22514 23924 23925 23976
22405 3 23231 24409 24419
22406 4 21905 22356 24194 24247
22407 8 20339 20340 21842 22080 22081 22356 22610 24424
22408 1 24120
22409 1 24120
22410 2 24120 26472
22411 5 24122 24123 24401 25575 26472
22412 1 26472
22413 2 24123 24369
22414 1 24369
22415 2 22354 24369
22416 2 22354 24369
22417 1 22354
22418 4 22353 22354 24359 24432
22419 8 22350 22355 24339 24370 24421 24433 24434 24435
22420 4 22351 22355 24352 24434
22421 6 22445 22506 22507 22514 22828 23004
22422 3 22452 24001 24163
22423 4 22449 22452 23867 24001
22424 6 22452 22515 22945 23327 24005 24167
22425 8 22453 22515 22542 23867 24005 24006 24167 24172
22426 3 22534 24007 24173
22427 15 21875 22453 22457 22516 22541 22542 22946 23261 23989 23991 24008 24145 24170 24172 24174
22428 5 22534 22535 22557 24173 24175
22429 1 22557
22430 2 21907 22558
22431 12 21907 22457 22517 22518 22543 22555 22556 22557 22558 24012 24176 24177
22432 5 21907 22008 22209 22521 22557
22433 6 21913 22223 22483 22554 22568 22569
22434 2 22483 22532
22435 8 21913 22011 22012 22018 22483 22532 22554 22561
22436 3 22043 22684 22961
22437 2 22043 22961
22438 5 22043 22323 22331 22961 23222
22439 4 22324 22331 23852 23886
22440 7 22325 22332 22485 23174 23846 23888 24087
22441 3 22054 22325 22333
22442 4 22054 22333 22334 22981
22443 13 22334 22487 22607 22983 22986 22995 22997 23150 23155 23161 23179 23253 24859
22444 4 22060 22490 22502 22509
22445 26 22060 22113 22114 22138 22335 22336 22337 22421 22491 22492 22502 22503 22506 22511 22512 22513 22828 23003 23163 23229 23230 23256 23257 24633 24635 24790
22446 1 22506
22447 1 22506
22448 2 23864 24001
22449 2 22423 24001
22450 11 21909 22538 22539 22804 23190 24001 24161 25005 25082 25084 25085
22451 4 22539 22944 25006 25088
22452 9 22422 22423 22424 23327 23867 24001 24005 24163 25007
22453 10 21875 22425 22427 22495 22515 22516 22540 22541 22542 24170
22454 3 22557 24012 24146
22455 7 22376 22519 22520 22562 23217 23245 23896
22456 2 21907 22544
22457 12 21907 22427 22431 22517 22543 22544 22946 22955 23330 24010 24174 24177
22458 7 22396 22520 22563 22565 23245 23896 24015
22459 5 22565 23220 23221 23348 23548
22460 3 22564 23899 24020
22461 7 21910 22564 22573 23869 23899 24016 24017
22462 4 22523 22546 22565 23348
22463 2 22009 22496
22464 2 24021 24183
22465 2 22525 22549
22466 5 22573 22574 23901 23902 24026
22467 14 22522 22523 22525 22545 22546 22547 22548 22549 22566 23348 24021 24025 24160 24182
22468 4 22524 22536 22574 22575
22469 2 22537 24159
22470 5 22527 22549 22550 23273 23348
22471 5 22527 22550 24029 24031 24160
22472 2 21911 22360
22473 4 22550 23025 23348 25069
22474 7 21911 22359 22360 22379 22499 22958 23345
22475 1 22575
22476 2 22531 22551
22477 10 21911 22061 22362 22363 22379 22498 22499 22611 22919 23029
22478 4 22061 22553 22878 23030
22479 5 20351 22530 22567 23943 23960
22480 8 22363 22364 22397 22398 22500 22919 23023 23031
22481 4 22364 22398 22399 23962
22482 2 22572 23882
22483 23 21912 21914 22015 22433 22434 22435 22531 22532 22551 22553 22554 22560 22561 22568 22569 22616 22676 22696 22833 22834 22878 22931 23023
22484 8 22501 22533 22571 22572 23881 23883 24036 28134
22485 4 22325 22332 22440 23846
22486 7 22325 22328 22332 22333 22580 22981 23175
22487 2 22334 22443
22488 1 23155
22489 2 22344 22400
22490 6 22401 22444 22502 22509 22823 24913
22491 6 22335 22403 22445 22511 22826 23258
22492 2 22445 22511
22493 2 22403 22511
22494 2 22347 22505
22495 1 22453
22496 5 22009 22010 22212 22280 22463
22497 4 22359 22377 22379 23345
22498 2 21911 22477
22499 3 22379 22474 22477
22500 2 22480 22919
22501 1 22484
22502 8 22060 22444 22445 22490 23256 24585 24913 24916
22503 16 21867 22058 22060 22132 22346 22400 22445 22508 22512 23922 24088 24089 24090 24101 24102 24104
22504 6 22346 23922 23923 24095 24107 24108
22505 9 22059 22347 22494 22738 23231 23921 24094 24105 24419
22506 10 22404 22421 22445 22446 22447 22513 22514 23889 23924 24107
22507 11 22348 22421 22514 22828 23232 23925 23928 24098 24111 24114 24447
22508 3 22503 24088 24101
22509 5 22060 22401 22444 22490 22767
22510 10 22345 22347 22402 22736 22826 23921 24103 24413 24446 24903
22511 6 22403 22445 22491 22492 22493 23229
22512 7 22336 22346 22445 22503 23923 24041 24092
22513 7 22336 22337 22445 22506 23889 24041 24106
22514 6 22404 22421 22506 22507 23925 24109
22515 7 22424 22425 22453 22540 22945 24167 24170
22516 3 21875 22427 22453
22517 3 22431 22457 24177
22518 1 22431
22519 3 22455 22562 23245
22520 4 22455 22458 23245 23896
22521 5 21907 22209 22277 22279 22432
22522 3 22467 22566 24182
22523 8 22462 22467 22545 22546 22548 22565 22566 24182
22524 2 22468 22575
22525 3 22465 22467 22549
22526 1 24026
22527 6 22470 22471 22549 22550 23875 24029
22528 4 22361 22379 23345 23963
22529 1 23879
22530 5 22479 22567 23280 23940 23960
22531 5 21912 22015 22476 22483 22551
22532 4 22434 22435 22483 22561
22533 2 22484 23883
22534 4 22426 22428 24173 24175
22535 4 22428 22557 24146 24173
22536 4 22468 22574 22575 24156
22537 2 22469 24159
22538 5 22450 22804 23865 23998 24161
22539 6 21909 22450 22451 22944 25006 25085
22540 3 22453 22515 24170
22541 3 22427 22453 24170
22542 5 21875 22425 22427 22453 24172
22543 2 22431 22457
22544 13 21907 22456 22457 22948 22949 22950 22955 22956 23266 23267 23270 23333 23335
22545 3 22467 22523 22566
22546 4 22462 22467 22523 23348
22547 1 22467
22548 2 22467 22523
22549 11 22465 22467 22470 22525 22527 23273 23348 23875 23876 24025 24029
22550 13 22470 22471 22473 22527 22694 22695 22831 22832 23025 23026 23027 23348 25069
22551 5 22015 22476 22483 22531 22568
22552 2 23879 24189
22553 6 22061 22478 22483 22568 22878 23023
22554 4 21913 22433 22435 22483
22555 1 22431
22556 2 21907 22431
22557 10 21907 22428 22429 22431 22432 22454 22535 24012 24146 24176
22558 3 21907 22430 22431
22559 1 24139
22560 1 22483
22561 10 21859 21882 21913 21914 21915 22018 22435 22483 22532 22676
22562 5 22394 22455 22519 23217 23245
22563 1 22458
22564 6 22460 22461 22573 23899 23902 24020
22565 13 21972 22396 22458 22459 22462 22523 23136 23221 23348 23547 24015 24180 24182
22566 5 22467 22522 22523 22545 24182
22567 5 20351 22479 22530 23280 23410
22568 8 21911 22015 22061 22223 22433 22483 22551 22553
22569 2 22433 22483
22570 10 22616 22676 22834 22837 22879 22880 22931 23016 23032 23033
22571 3 22484 23881 28134
22572 4 22482 22484 23882 23883
22573 4 22461 22466 22564 23902
22574 5 22466 22468 22536 23901 24156
22575 8 22468 22475 22524 22536 23901 23904 24156 24157
22576 3 23903 23904 24042
22577 1 23139
22578 2 22913 22965
22579 16 22589 22913 22914 22962 22966 22970 23139 23141 23144 23172 23173 23226 23247 23624 23625 23699
22580 5 22332 22486 23174 23175 24624
22581 5 22731 22733 22974 23468 23710
22582 2 22986 23155
22583 2 23152 23630
22584 4 22997 23152 23630 23701
22585 3 23182 23631 25060
22586 4 23157 23254 24481 24907
22587 4 23000 23161 24660 24851
22588 5 22049 22073 22684 22872 23137
22589 7 22042 22045 22099 22100 22579 22913 22962
22590 3 22963 23223 24901
22591 1 22045
22592 4 22051 22916 22974 23180
22593 2 22979 23628
22594 6 22975 22976 22991 23147 23176 23180
22595 1 22977
22596 6 22976 22984 22991 23151 23176 23180
22597 1 23156
22598 3 22980 22987 23156
22599 1 22733
22600 2 22733 23631
22601 4 22987 22990 23156 24653
22602 2 22997 23156
22603 3 22997 23155 24888
22604 3 22334 23253 24859
22605 4 22997 23156 24522 24888
22606 1 24859
22607 3 22443 22995 23161
22608 2 22997 23633
22609 1 23161
22610 11 20339 20340 21905 22080 22356 22407 22721 22722 24190 24194 24195
22611 3 22061 22477 23029
22612 3 22832 22877 22929
22613 2 23023 23029
22614 4 22061 23023 23029 23030
22615 7 22697 22832 22929 23075 24302 24668 24801
22616 5 22483 22570 22834 22931 23032
22617 6 23062 23063 23068 23071 23077 24795
22618 2 22837 23013
22619 8 20352 20354 22840 22923 23037 24198 24284 24795
22620 3 22837 23013 23041
22621 2 23041 24578
22622 2 23041 24578
22623 4 22676 22885 22933 24578
22624 12 22651 22837 22843 23013 23014 23015 23041 24534 24578 24608 24726 24734
22625 3 22885 24549 24781
22626 3 22654 22847 24253
22627 5 22677 24206 24211 24740 24748
22628 27 21859 21915 22062 22177 22204 22227 22676 22723 22724 22749 22884 22886 24205 24206 24211 24549 24606 24611 24616 24618 24619 24679 24729 24739 24740 24741 24781
22629 4 22118 22726 22727 22935
22630 2 22679 22727
22631 6 22063 22677 22680 22889 24285 24754
22632 1 22680
22633 7 22682 24209 24212 24286 24314 24617 24746
22634 6 22680 22750 22937 24261 24542 24562
22635 3 22065 22709 23586
22636 5 22024 22025 22711 22852 22853
22637 6 22025 22657 22658 22857 22858 22899
22638 3 22682 24220 24293
22639 5 22067 22660 22661 22861 22903
22640 6 22069 22863 22869 22902 22904 24476
22641 9 22682 22716 22865 22867 24227 24264 24314 24315 24950
22642 3 22092 22683 22869
22643 2 22073 22684
22644 6 24270 24275 24315 24316 24873 24950
22645 6 22028 22245 22668 22871 22909 22910
22646 3 22074 22173 23048
22647 20 22064 22118 22655 22727 22741 22890 22891 22894 22960 23350 24561 24946 24979 25016 25018 25019 25056 25096 25097 25098
22648 6 22674 22697 22700 23059 23075 24723
22649 7 22834 22879 23022 23023 24461 24670 24724
22650 5 22835 22920 23012 23023 24724
22651 8 22624 22837 22922 23035 23036 24462 24726 24776
22652 5 22840 22844 22923 23039 23078
22653 6 22845 22850 24207 24288 24612 24678
22654 14 22626 22678 22847 22848 22849 22924 23024 23042 24201 24253 24467 24578 24738 24780
22655 4 22647 22741 22891 24561
22656 9 22706 22707 22708 22709 23581 23582 23584 23586 25022
22657 3 22637 22857 22899
22658 17 22031 22065 22067 22162 22637 22710 22711 22851 22853 22854 22855 22857 22858 22895 22896 23587 24219
22659 7 22067 22713 22859 22896 24219 25021 25038
22660 6 22067 22639 22714 22859 22861 24453
22661 3 22639 22861 22903
22662 16 22066 22069 22712 22742 22860 22862 22863 22898 22900 22901 22902 23043 23448 24342 24974 24980
22663 3 22905 22938 24568
22664 3 22070 22866 22903
22665 3 22743 22907 24269
22666 5 22866 22903 22925 22938 24568
22667 4 22091 22868 22905 22908
22668 5 22645 22909 22910 23047 24771
22669 8 22128 22718 22743 22762 22870 22907 22939 24344
22670 3 22718 22870 22910
22671 21 22122 22130 22685 22686 22719 22720 22747 22754 22755 22765 22873 22911 22912 22926 24349 24569 24570 24774 24952 24965 25027
22672 7 22131 22687 22747 22912 22927 24711 24952
22673 2 22766 22927
22674 3 22648 23059 23075
22675 5 23061 23064 23067 23069 23072
22676 15 21859 21914 22062 22483 22561 22570 22623 22628 22837 22885 22931 22933 23041 24578 24729
22677 7 22063 22627 22631 22725 24206 24211 24285
22678 4 22654 22924 24253 24468
22679 3 22630 22727 24561
22680 17 22063 22631 22632 22634 22728 22740 22750 22761 22889 22937 24214 24255 24260 24261 24289 24563 24565
22681 4 22900 23448 24948 25037
22682 17 22633 22638 22641 24212 24218 24220 24225 24228 24272 24286 24288 24293 24314 24315 24599 24620 24756
22683 7 22028 22092 22166 22642 22869 22909 24477
22684 10 22043 22073 22168 22436 22588 22643 22872 22961 23137 24506
22685 4 22122 22131 22671 22755
22686 5 22131 22671 22747 22755 22756
22687 6 22124 22131 22672 22766 22927 22928
22688 4 22079 22691 22692 23892
22689 1 24393
22690 5 22693 23892 23893 24393 25115
22691 8 21842 22077 22079 22089 22688 23892 23915 24393
22692 9 21842 22079 22688 22760 23860 23862 23892 23911 24392
22693 3 22690 23892 24393
22694 8 22550 22830 22832 22874 24031 24160 24301 24668
22695 5 22550 22832 22877 23027 24197
22696 1 22483
22697 7 22615 22648 22877 22929 23075 24197 24723
22698 3 23028 23066 23075
22699 5 23058 23061 23066 23067 23075
22700 7 22648 23059 23068 23071 24248 24723 24798
22701 2 22836 23068
22702 3 22836 23073 23075
22703 1 22841
22704 4 22841 22842 23040 23077
22705 15 22836 22841 22882 22883 23040 23064 23069 23075 23076 23078 24199 24200 24304 24305 24308
22706 8 22656 22892 22893 23584 23585 25017 25022 25036
22707 5 22233 22656 23586 24951 25022
22708 4 22656 23581 23582 23585
22709 7 22065 22635 22656 23582 23586 24955 25042
22710 3 22658 22851 22895
22711 8 22025 22636 22658 22853 22856 22857 22897 22899
22712 5 22662 22898 22900 23043 23448
22713 6 22659 22859 24222 24263 24567 25021
22714 4 22660 22859 24453 24704
22715 3 22862 22905 24568
22716 2 22641 22867
22717 4 22868 22906 22908 22940
22718 9 22075 22128 22159 22173 22669 22670 22870 22871 22910
22719 5 22130 22671 22745 24363 24569
22720 2 22671 22911
22721 3 22610 24190 24195
22722 18 21839 21842 22080 22081 22083 22084 22085 22095 22096 22098 22338 22340 22610 24190 24195 24281 24282 24358
22723 2 22628 22749
22724 2 22628 22749
22725 6 22063 22125 22677 22749 22934 24206
22726 7 21861 21884 22117 22118 22127 22629 22935
22727 16 22117 22118 22126 22127 22176 22629 22630 22647 22679 22740 22761 22887 22935 22936 24558 24561
22728 6 22680 22750 22761 24341 24561 24979
22729 6 20514 22119 22129 22744 22753 24346
22730 4 22045 22821 23463 23624
22731 5 22051 22581 22974 23466 23710
22732 4 22055 22997 23152 23712
22733 21 22052 22053 22581 22599 22600 22974 22978 22998 23018 23019 23020 23021 23153 23154 23180 23182 23251 23255 23468 23629 23631
22734 1 23255
22735 2 23256 24325
22736 5 22345 22510 23259 24436 24446
22737 6 22403 22826 22827 23229 23259 24436
22738 5 22347 22505 23231 24446 24589
22739 1 24443
22740 5 22063 22126 22680 22727 22761
22741 6 22647 22655 22891 24341 24561 24979
22742 7 22662 22863 24291 24342 24600 24875 24980
22743 7 22665 22669 22907 24269 24343 24344 24980
22744 6 20514 22729 22752 24345 24346 24362
22745 7 22129 22130 22193 22719 22753 24346 24363
22746 8 22754 22765 24276 24347 24348 24363 24364 24774
22747 6 22131 22671 22672 22686 22756 22912
22748 4 22132 22758 22767 24366
22749 7 22125 22227 22628 22723 22724 22725 24206
22750 6 22634 22680 22728 24542 24562 24979
22751 3 22128 22762 22941
22752 8 20514 22094 22128 22744 22763 22941 24345 24362
22753 4 22129 22729 22745 24346
22754 5 22671 22746 22765 24363 24569
22755 4 22131 22671 22685 22686
22756 3 22131 22686 22747
22757 6 22766 24321 24350 24351 24357 24366
22758 4 22132 22748 23050 24366
22759 2 24388 24391
22760 11 21842 22039 22076 22078 22692 24299 24388 24389 24391 24392 24418
22761 6 22680 22727 22728 22740 24558 24561
22762 8 22128 22669 22751 22939 22941 24344 24362 24980
22763 3 22752 22941 24362
22764 2 24346 24363
22765 6 22671 22746 22754 22926 24570 24774
22766 12 21867 22673 22687 22757 22927 22928 22942 23049 23050 24350 24366 24711
22767 9 21868 22060 22132 22133 22401 22509 22748 24322 24366
22768 4 22802 23363 23759 26962
22769 13 21987 22782 23007 23196 23304 23308 23378 23384 23389 23531 23672 23729 23762
22770 7 22796 22814 23244 23397 23486 23529 26949
22771 6 22797 22800 23010 23319 23398 23403
22772 3 22799 23399 23489
22773 7 23238 23288 23354 23357 23372 28528 28545
22774 4 21919 21937 21975 28548
22775 5 22367 23096 23099 23290 23362
22776 5 23289 23360 23363 23675 23759
22777 12 21941 21977 22802 23085 23289 23360 23363 23364 23365 23670 26947 26959
22778 10 21921 21939 21940 21961 21962 21964 23105 23106 23168 23367
22779 7 21922 21983 22807 23191 23194 23531 23682
22780 4 21945 23007 23194 23394
22781 8 21923 21924 21944 23241 26942 28631 28696 28698
22782 7 22769 23007 23194 23196 23378 23384 23531
22783 6 22812 23008 23310 23383 23386 24814
22784 4 22811 23394 23477 23533
22785 5 22812 22813 23199 23388 24814
22786 3 23007 23389 23536
22787 17 21946 21967 21986 21993 22810 23195 23197 23198 23305 23309 23387 23478 26931 26941 26943 26944 28697
22788 4 21945 23122 23392 23394
22789 5 22813 23200 23314 23392 24814
22790 10 21995 23086 23201 23202 23205 23243 23478 26933 26940 26941
22791 7 23315 23390 23394 23482 23535 23536 26968
22792 5 23009 23203 23204 23236 23242
22793 2 21953 22815
22794 9 21926 21949 21952 21966 22207 23123 23204 23236 23393
22795 1 21953
22796 5 22770 22814 23081 23319 23397
22797 10 22771 22814 23010 23081 23206 23317 23319 23320 23398 23768
22798 15 20243 21953 22262 22815 22816 23321 23322 23395 23401 23402 23405 23485 23489 23589 26968
22799 9 20234 20243 22772 22800 23010 23213 23320 23399 23489
22800 11 20234 22197 22771 22799 22817 23010 23166 23212 23213 23403 23741
22801 4 21941 22381 22382 28547
22802 7 22768 22777 23363 23365 23670 23766 26962
22803 7 23006 23102 23190 23293 23368 23369 24940
22804 8 22450 22538 23190 23369 23865 23998 24384 24943
22805 2 22944 23190
22806 3 21909 22944 23190
22807 4 21983 22779 23087 23191
22808 15 22944 23006 23104 23113 23117 23189 23193 23240 23296 23300 23366 23370 24382 24386 24941
22809 6 21965 23117 23234 23383 24375 24386
22810 4 22787 23195 23198 23305
22811 4 22784 23007 23394 26932
22812 13 21965 21985 22783 22785 23008 23199 23233 23235 23381 23383 23385 23386 24814
22813 10 21903 21943 21945 22785 22789 23199 23233 23381 23392 24814
22814 9 22770 22796 22797 23081 23165 23206 23244 23536 23735
22815 3 21953 22793 22798
22816 2 21953 22798
22817 1 22800
22818 7 23133 23167 23218 23406 23495 23580 23692
22819 1 26970
22820 1 26970
22821 6 22045 22730 23142 23171 23246 23463
22822 4 22058 22992 23252 23254
22823 5 22401 22490 23920 24324 24913
22824 2 23257 24790
22825 2 23258 24790
22826 9 22345 22403 22491 22510 22737 23258 23259 24413 24790
22827 3 22403 22737 23229
22828 8 22421 22445 22507 23003 23004 23184 24440 24447
22829 2 24399 24417
22830 4 22694 22874 24160 24667
22831 5 20343 20353 22550 23027 23348
22832 9 22550 22612 22615 22694 22695 22876 22877 22929 24668
22833 1 22483
22834 8 22483 22570 22616 22649 22879 23022 23023 23032
22835 4 22399 22650 23012 24724
22836 8 22701 22702 22705 22882 23068 23073 23075 23077
22837 13 22570 22618 22620 22624 22651 22676 22880 22881 22922 23013 23033 23035 23041
22838 1 24462
22839 2 20352 22923
22840 8 22619 22652 22923 23039 23065 23077 23078 24795
22841 7 22703 22704 22705 22882 22883 23040 23077
22842 4 22704 23040 23065 23077
22843 2 22624 23014
22844 6 22652 22923 23078 24208 24605 24800
22845 11 20352 20359 22653 22923 24207 24208 24613 24614 24678 24686 24779
22846 3 22888 24314 24778
22847 4 22626 22654 24253 24738
22848 2 22654 23024
22849 2 22654 23042
22850 9 22653 22888 24212 24288 24314 24676 24678 24682 24731
22851 5 22024 22065 22658 22710 22895
22852 4 21854 22024 22025 22636
22853 5 22024 22636 22658 22711 22895
22854 2 22658 24219
22855 2 22658 22896
22856 3 22025 22711 22897
22857 5 22637 22657 22658 22711 22899
22858 4 22025 22031 22637 22658
22859 7 22067 22659 22660 22713 22714 24263 24704
22860 3 22066 22662 22898
22861 5 22639 22660 22661 22903 24453
22862 12 22091 22662 22715 22900 22901 22905 23044 23045 23046 24453 24568 24763
22863 8 22640 22662 22742 22902 24291 24313 24476 24769
22864 1 22903
22865 2 22641 24314
22866 7 22034 22070 22150 22664 22666 22903 22925
22867 2 22641 22716
22868 6 22667 22717 22905 22906 22908 22938
22869 9 22092 22640 22642 22683 22904 24267 24476 24477 24708
22870 8 22669 22670 22718 22907 22910 24269 24708 24771
22871 7 22028 22074 22159 22645 22718 22910 23048
22872 3 22073 22588 22684
22873 1 22671
22874 4 22694 22830 24301 24667
22875 1 23027
22876 1 22832
22877 6 22612 22695 22697 22832 22929 24197
22878 5 22478 22483 22553 23023 23030
22879 7 22570 22649 22834 22921 23016 23034 24670
22880 3 22570 22837 23033
22881 2 22837 23013
22882 4 22705 22836 22841 23077
22883 2 22705 22841
22884 3 22628 24549 24611
22885 8 22623 22625 22676 22933 24549 24578 24729 24781
22886 1 22628
22887 3 22126 22176 22727
22888 6 22846 22850 24212 24314 24676 24778
22889 4 22631 22680 24255 24754
22890 2 22647 24561
22891 4 22647 22655 22741 24561
22892 1 22706
22893 4 22706 23581 23584 23585
22894 3 22647 24946 25019
22895 5 22024 22658 22710 22851 22853
22896 5 22067 22658 22659 22855 24219
22897 3 22025 22711 22856
22898 4 22662 22712 22860 23043
22899 5 22025 22637 22657 22711 22857
22900 8 22662 22681 22712 22862 23448 24320 24763 24948
22901 4 22069 22091 22662 22862
22902 4 22069 22640 22662 22863
22903 13 22026 22067 22070 22639 22661 22664 22666 22861 22864 22866 22938 24453 24568
22904 5 22032 22069 22092 22640 22869
22905 9 22091 22663 22667 22715 22862 22868 22908 22938 24568
22906 4 22717 22868 22938 22940
22907 6 22665 22669 22743 22870 24269 24709
22908 8 21855 22036 22091 22667 22717 22868 22905 22940
22909 6 22028 22645 22668 22683 24477 24771
22910 8 22645 22668 22670 22718 22870 22871 23047 24771
22911 2 22671 22720
22912 4 22671 22672 22747 24952
22913 8 22045 22100 22578 22579 22589 22965 22966 23141
22914 5 22045 22579 22966 22967 23173
22915 5 22045 22968 22970 23173 23624
22916 2 22592 22974
22917 2 22051 22974
22918 4 23002 24526 24851 24855
22919 6 22362 22363 22477 22480 22500 23023
22920 5 22399 22650 23012 23023 23031
22921 4 22879 23016 23034 24670
22922 7 22651 22837 23016 23033 23035 23036 24810
22923 10 20352 22619 22652 22839 22840 22844 22845 23037 23039 24208
22924 7 22654 22678 23024 24256 24468 24553 24688
22925 10 22034 22038 22139 22151 22152 22165 22666 22866 22938 22940
22926 3 22671 22765 24570
22927 5 22672 22673 22687 22766 24711
22928 4 21867 22124 22687 22766
22929 5 22612 22615 22697 22832 22877
22930 2 23028 23075
22931 4 22483 22570 22616 22676
22932 4 23061 23066 23069 23075
22933 3 22623 22676 22885
22934 1 22725
22935 4 22127 22629 22726 22727
22936 1 22727
22937 2 22634 22680
22938 8 22663 22666 22868 22903 22905 22906 22925 24568
22939 3 22669 22762 24344
22940 8 22036 22093 22152 22172 22717 22906 22908 22925
22941 6 22128 22751 22752 22762 22763 24362
22942 4 22766 23049 23050 24366
22943 3 22947 22953 23990
22944 11 21909 22451 22539 22805 22806 22808 23006 24140 24164 24386 25088
22945 4 22424 22515 23327 24170
22946 5 22427 22457 22955 23261 23991
22947 14 21966 22207 22943 22953 22954 23262 23263 23329 23331 23334 23591 23808 23990 23992
22948 7 22544 22955 23264 23266 23332 23333 23991
22949 3 22544 23266 23333
22950 4 22544 23267 23270 23335
22951 15 20244 20263 22956 23052 23265 23268 23269 23270 23334 23335 23336 23420 23550 23589 23591
22952 2 22223 23597
22953 7 21966 22206 22943 22947 23328 23408 23990
22954 3 22207 22947 23263
22955 7 22457 22544 22946 22948 23264 23330 23991
22956 7 20263 21907 22201 22544 22951 23270 23813
22957 29 22198 22300 23272 23338 23449 23450 23451 23496 23498 23499 23500 23501 23502 23503 23505 23506 23507 23508 23544 23549 23644 23704 23752 23776 26974 27931 27934 27948 27949
22958 10 20246 21911 22203 22474 23053 23342 23343 23345 23409 23594
22959 4 22014 22017 22221 23349
22960 9 21908 22064 22118 22647 23284 23285 23350 23413 23414
22961 7 22043 22436 22437 22438 22684 23222 24506
22962 6 22042 22049 22099 22579 22589 23139
22963 7 22049 22590 23137 23140 23223 24506 24901
22964 4 22045 22047 23138 23142
22965 3 22045 22578 22913
22966 4 22045 22579 22913 22914
22967 3 22045 22914 23173
22968 3 22045 22915 23173
22969 3 23249 24647 24878
22970 4 22579 22915 23173 23624
22971 3 23174 24511 24880
22972 4 23226 24825 24906 24991
22973 9 22049 23145 23224 23225 23226 23249 24516 24825 24827
22974 9 22051 22053 22581 22592 22731 22733 22916 22917 23180
22975 4 22051 22594 23147 23180
22976 4 22594 22596 23176 23180
22977 2 22595 23156
22978 5 22733 23019 23021 23177 23629
22979 7 22055 22593 23156 23628 24516 24883 24991
22980 2 22598 23156
22981 11 22333 22334 22442 22486 23146 23150 23175 24517 24624 24828 24884
22982 1 23151
22983 7 22443 23150 23179 24517 24833 24858 24885
22984 3 22596 23151 23180
22985 1 23156
22986 10 22443 22582 23149 23155 23179 24831 24834 24885 24886 24887
22987 10 22598 22601 23156 24518 24519 24652 24653 24832 24834 24836
22988 3 23152 23630 23701
22989 2 22055 23156
22990 5 22601 23156 24521 24653 24888
22991 12 22594 22596 23147 23148 23151 23157 23176 23252 24478 24479 24837 24838
22992 4 22822 23157 23252 23254
22993 6 23151 23154 23180 23181 23255 24908
22994 1 24860
22995 5 22443 22607 23161 24859 24860
22996 2 23161 24861
22997 26 22055 22056 22057 22443 22584 22602 22603 22605 22608 22732 23152 23155 23156 23158 23159 23160 23161 23162 23630 23633 23701 23703 24522 24660 24661 24888
22998 8 22733 23153 23182 23255 24917 24999 25030 25061
22999 6 23633 23703 24485 24843 24845 24911
23000 7 22587 23161 24583 24584 24660 24851 24861
23001 3 23162 24850 24855
23002 4 22918 24526 24851 24855
23003 4 22445 22828 23230 24440
23004 2 22421 22828
23005 5 24237 24239 24449 24504 24657
23006 7 22803 22808 22944 23188 23190 23296 23368
23007 9 22769 22780 22782 22786 22811 23194 23389 23394 26932
23008 3 22783 22812 24814
23009 6 21953 21992 22792 23204 23242 23314
23010 6 22771 22797 22799 22800 23213 23320
23011 6 23136 23326 23547 23695 23696 26976
23012 4 22399 22650 22835 22920
23013 6 22618 22620 22624 22837 22881 23041
23014 2 22624 22843
23015 1 22624
23016 9 22570 22879 22921 22922 23033 23034 24670 24724 24810
23017 1 23468
23018 2 22733 23629
23019 2 22733 22978
23020 2 22733 23631
23021 6 22733 22978 23177 23178 23629 23631
23022 2 22649 22834
23023 16 22362 22480 22483 22553 22613 22614 22649 22650 22834 22878 22919 22920 23029 23030 23031 24724
23024 7 22654 22848 22924 24254 24579 24688 24780
23025 4 22473 22550 23348 25069
23026 1 22550
23027 10 20353 20381 20425 22550 22695 22831 22875 24197 24669 24722
23028 4 22698 22930 23066 23075
23029 7 22061 22362 22477 22611 22613 22614 23023
23030 5 22061 22478 22614 22878 23023
23031 5 22364 22399 22480 22920 23023
23032 3 22570 22616 22834
23033 5 22570 22837 22880 22922 23016
23034 3 22879 22921 23016
23035 3 22651 22837 22922
23036 4 22651 22922 24462 24810
23037 3 20352 22619 22923
23038 2 24462 24674
23039 3 22652 22840 22923
23040 6 22704 22705 22841 22842 23065 23078
23041 8 22620 22621 22622 22624 22676 22837 23013 24578
23042 2 22654 22849
23043 3 22662 22712 22898
23044 1 22862
23045 1 22862
23046 2 22862 24763
23047 3 22668 22910 24771
23048 5 22074 22159 22173 22646 22871
23049 2 22766 22942
23050 6 21867 22132 22758 22766 22942 24366
23051 2 23266 23332
23052 5 22951 23266 23268 23334 23335
23053 3 20246 22958 23409
23054 1 23277
23055 4 23276 23344 23347 27933
23056 1 23347
23057 1 23348
23058 7 22699 23067 23075 24304 24458 24797 24801
23059 5 22648 22674 22700 23068 23075
23060 2 23068 23071
23061 6 22675 22699 22932 23066 23067 23069
23062 3 22617 23068 23077
23063 2 22617 23077
23064 5 22675 22705 23069 23072 24304
23065 5 22840 22842 23040 23077 23078
23066 6 22698 22699 22932 23028 23061 23075
23067 6 22675 22699 23058 23061 23072 24304
23068 11 22617 22700 22701 22836 23059 23060 23062 23070 23071 23075 23077
23069 8 22675 22705 22932 23061 23064 23074 23075 23076
23070 1 23068
23071 6 22617 22700 23060 23068 24795 24798
23072 4 22675 23064 23067 24304
23073 2 22702 22836
23074 1 23069
23075 18 22615 22648 22674 22697 22698 22699 22702 22705 22836 22930 22932 23028 23058 23059 23066 23068 23069 24801
23076 2 22705 23069
23077 12 22617 22704 22836 22840 22841 22842 22882 23062 23063 23065 23068 24795
23078 8 22652 22705 22840 22844 23040 23065 24308 24800
23079 1 24805
23080 4 24065 24078 24376 24802
23081 4 22796 22797 22814 23319
23082 6 21933 23133 23690 23692 23745 23784
23083 5 21941 22381 23360 28540 28546
23084 4 21978 23098 23187 23292
23085 8 21941 22777 23087 23373 23374 23669 23682 26947
23086 4 21954 21995 22790 23205
23087 8 21941 21983 22807 23085 23191 23374 23375 23682
23088 5 22384 24133 24134 28622 28629
23089 6 22371 22384 22385 23121 24134 28629
23090 2 21967 22372
23091 4 21928 21954 22001 23205
23092 1 28537
23093 2 21941 23360
23094 2 23289 23360
23095 3 23290 24371 24374
23096 6 21937 22367 22383 22775 23362 28537
23097 5 21976 22383 23362 24373 24929
23098 4 21960 21978 23084 23185
23099 6 22775 23290 23362 24374 24817 24932
23100 7 21937 21960 21976 23185 23291 23359 24930
23101 2 23372 26935
23102 5 22803 23294 23368 24928 24940
23103 1 23187
23104 3 22808 23189 24941
23105 10 21938 21962 21978 21979 21980 22778 23186 23187 23292 23367
23106 8 21939 21961 21964 22778 23186 23297 23371 24818
23107 5 21940 21963 21964 21982 23168
23108 6 23239 23299 23303 23372 23377 26935
23109 5 21920 21964 21985 23371 24812
23110 2 23195 28697
23111 4 21965 21985 22369 24812
23112 1 28631
23113 2 22808 23240
23114 2 28631 28697
23115 7 21921 21940 21942 21964 21985 23376 26955
23116 3 23195 23379 26941
23117 5 21965 22808 22809 23193 24386
23118 3 28622 28625 28632
23119 4 21947 21967 21990 22385
23120 3 23200 23391 24936
23121 3 22371 22385 23089
23122 4 21953 22788 23392 23394
23123 8 21966 22794 23200 23203 23236 23242 23391 23393
23124 1 22371
23125 4 22371 22372 22385 22386
23126 1 23205
23127 4 21928 23205 23318 23396
23128 6 22372 22373 22387 22389 23209 24807
23129 7 22373 22388 22389 22390 23208 23209 24135
23130 1 22392
23131 4 22390 23210 23211 24075
23132 10 22000 22375 22391 22392 22393 22394 23209 23214 23216 24077
23133 5 21933 22818 23082 23167 23692
23134 5 21971 23323 23406 23495 23679
23135 4 21933 21972 23167 23324
23136 7 21972 22565 23011 23167 23324 23326 23547
23137 5 22049 22588 22684 22963 24506
23138 4 21865 22045 22047 22964
23139 5 22049 22577 22579 22962 23226
23140 2 22049 22963
23141 2 22579 22913
23142 5 22045 22047 22821 22964 23171
23143 4 22047 23171 23248 23463
23144 3 22579 23226 23247
23145 5 22973 23225 24514 24826 24827
23146 5 22981 24517 24828 24858 24885
23147 6 22051 22109 22594 22975 22991 23252
23148 1 22991
23149 2 22986 24831
23150 6 22334 22443 22981 22983 24833 24884
23151 8 22596 22982 22984 22991 22993 23180 24478 24908
23152 9 22583 22584 22732 22988 22997 23417 23630 23701 23712
23153 3 22733 22998 23255
23154 5 22733 22993 23180 23181 23255
23155 11 22443 22488 22582 22603 22986 22997 24521 24653 24835 24887 24888
23156 18 22055 22597 22598 22601 22602 22605 22977 22979 22980 22985 22987 22989 22990 22997 24516 24652 24832 24888
23157 9 22586 22991 22992 23252 23254 24479 24481 24839 24840
23158 1 22997
23159 3 22997 23703 24661
23160 2 22997 24661
23161 12 22443 22587 22607 22609 22995 22996 22997 23000 24523 24626 24660 24861
23162 6 22997 23001 24660 24661 24850 24855
23163 5 22445 23183 23229 23230 24440
23164 4 23244 23479 23536 23732
23165 2 22814 23206
23166 2 22800 23403
23167 10 21933 22818 23133 23135 23136 23218 23324 23325 23326 23407
23168 4 21940 21964 22778 23107
23169 3 23479 23536 23732
23170 1 23490
23171 5 22047 22821 23142 23143 23463
23172 2 22579 23247
23173 7 22045 22579 22914 22915 22967 22968 22970
23174 11 22332 22440 22580 22971 24087 24510 24511 24624 24828 24880 24881
23175 4 22486 22580 22981 24624
23176 4 22594 22596 22976 22991
23177 3 22978 23021 23629
23178 6 23021 23417 23629 23631 23701 23712
23179 4 22443 22983 22986 24885
23180 12 22051 22592 22594 22596 22733 22974 22975 22976 22984 22993 23151 23154
23181 3 22993 23154 23255
23182 7 22585 22733 22998 23631 24999 25060 25061
23183 2 23163 23229
23184 3 22828 24440 24447
23185 5 21960 21978 23098 23100 23291
23186 5 21961 23105 23106 23297 23367
23187 4 23084 23103 23105 23292
23188 6 22368 23006 23296 23366 23368 24383
23189 6 22808 23104 23240 24819 24935 24941
23190 8 21909 22450 22803 22804 22805 22806 23006 23369
23191 5 22779 22807 23087 23375 23682
23192 8 21891 21903 21921 21922 21941 21942 21983 26955
23193 8 21965 22369 22808 23117 23240 23298 23302 24935
23194 7 21922 21945 22779 22780 22782 23007 23531
23195 15 22787 22810 23110 23116 23305 23379 23382 26923 26926 26931 26934 26936 26941 26943 28697
23196 3 22769 22782 23384
23197 5 21967 21986 21989 22787 28631
23198 2 22787 22810
23199 6 22785 22812 22813 23233 23235 23385
23200 10 22789 23120 23123 23242 23312 23313 23314 23391 24814 24936
23201 3 22790 23243 26940
23202 7 21929 21946 21991 21995 22790 23387 23478
23203 4 22792 23123 23236 23242
23204 7 21952 21953 21997 22792 22794 23009 23236
23205 8 21928 22790 23086 23091 23126 23127 23243 23396
23206 6 22797 22814 23165 23317 23735 23768
23207 5 21928 22001 23318 23400 23781
23208 4 22390 23129 24135 28657
23209 10 21967 22000 22387 22389 22390 22392 23128 23129 23132 24077
23210 6 22390 23131 24074 24075 24079 24136
23211 7 22390 23131 24068 24075 24079 24136 24574
23212 5 22197 22800 23543 23741 23773
23213 4 20234 22799 22800 23010
23214 5 22394 23132 24077 24079 24137
23215 2 22394 23245
23216 4 22375 22394 23132 23245
23217 7 22376 22394 22455 22562 24071 24080 24125
23218 7 22818 23167 23237 23407 23580 23694 23754
23219 4 23407 23695 23754 26976
23220 3 22459 23348 23548
23221 7 22459 22565 23547 23548 23697 23723 26976
23222 7 22331 22438 22961 23886 24506 24820 24901
23223 5 22049 22590 22963 23249 24901
23224 3 22049 22973 23249
23225 5 22973 23145 23249 24826 24878
23226 13 22049 22579 22972 22973 23139 23144 23247 23250 23465 23625 23707 24825 24906
23227 2 23255 24917
23228 2 23255 24917
23229 9 22403 22445 22511 22737 22827 23163 23183 24436 24440
23230 4 22445 23003 23163 24440
23231 11 22405 22505 22738 23926 24096 24112 24409 24419 24446 24589 24904
23232 4 22507 24098 24441 24447
23233 5 22812 22813 23199 23381 23385
23234 4 22809 23310 23383 24375
23235 3 22812 23199 23385
23236 5 22792 22794 23123 23203 23204
23237 3 23218 23407 23754
23238 13 21959 22773 23287 23353 23355 23356 23357 23360 23728 28524 28528 28531 28546
23239 4 23108 23372 23377 26954
23240 7 22808 23113 23189 23193 23302 23370 24935
23241 5 21923 22781 28627 28630 28698
23242 7 22792 23009 23123 23200 23203 23312 23314
23243 6 22790 23201 23205 23396 26940 26965
23244 11 22770 22814 23164 23479 23480 23486 23536 23715 23733 23767 26966
23245 12 21972 22375 22394 22395 22396 22455 22458 22519 22520 22562 23215 23216
23246 2 22045 22821
23247 4 22579 23144 23172 23226
23248 4 22047 23143 23463 23706
23249 9 22049 22969 22973 23223 23224 23225 24647 24878 24901
23250 2 23226 24906
23251 2 22053 22733
23252 8 22051 22058 22108 22822 22991 22992 23147 23157
23253 4 22334 22443 22604 24859
23254 8 22058 22400 22586 22822 22992 23157 24481 24907
23255 12 22733 22734 22993 22998 23153 23154 23181 23227 23228 24481 24908 24917
23256 6 22445 22502 22735 24325 24633 24916
23257 4 22445 22824 24635 24790
23258 7 22335 22491 22825 22826 24413 24635 24790
23259 5 22345 22736 22737 22826 24436
23260 1 23408
23261 3 22427 22946 23991
23262 1 22947
23263 5 22207 22947 22954 23589 23808
23264 3 22948 22955 23991
23265 2 22951 23334
23266 8 22544 22948 22949 23051 23052 23332 23333 23335
23267 3 22544 22950 23335
23268 3 22951 23052 23335
23269 1 22951
23270 5 22544 22950 22951 22956 23335
23271 1 23338
23272 8 22013 22957 23344 23410 23443 23501 23511 27931
23273 3 22470 22549 23348
23274 2 23344 27931
23275 4 23341 23344 27931 27933
23276 4 22013 23055 23344 23347
23277 4 23054 23340 23348 27932
23278 1 23348
23279 1 23347
23280 6 22530 22567 23346 23410 23519 23960
23281 4 22221 22285 23349 23601
23282 1 23411
23283 2 22305 23411
23284 7 22240 22316 22960 23350 23413 23634 25013
23285 1 22960
23286 3 22021 22236 23415
23287 4 21959 23238 23360 28546
23288 4 22773 23357 23372 23728
23289 5 22776 22777 23094 23360 23363
23290 7 22367 22775 23095 23099 24371 24374 28537
23291 3 23100 23185 24930
23292 4 21978 23084 23105 23187
23293 5 22803 23369 24805 24938 24940
23294 2 23102 23368
23295 2 23372 23471
23296 4 22808 23006 23188 23366
23297 5 23106 23186 24818 24931 24942
23298 2 22369 23193
23299 3 23108 23372 26935
23300 1 22808
23301 2 23680 26962
23302 2 23193 23240
23303 6 23108 23377 26925 26927 26935 26937
23304 1 22769
23305 3 22787 22810 23195
23306 1 28631
23307 1 28631
23308 2 22769 23389
23309 3 21946 22787 23387
23310 6 22783 23234 23383 24375 24814 24900
23311 3 23391 23408 24387
23312 2 23200 23242
23313 1 23200
23314 6 21992 22789 23009 23200 23242 23392
23315 4 22791 23394 23485 26968
23316 4 21953 23394 23395 23485
23317 3 22797 23206 23768
23318 5 21928 23127 23207 23396 23781
23319 8 22771 22796 22797 23081 23397 23403 23488 23529
23320 6 22797 22799 23010 23399 23668 23768
23321 2 22798 23489
23322 1 22798
23323 3 21971 23134 23495
23324 4 21972 23135 23136 23167
23325 2 23167 23407
23326 5 23011 23136 23167 23407 23695
23327 5 22424 22452 22945 24170 25007
23328 7 22953 23408 23988 23990 24142 24168 24169
23329 2 22947 23992
23330 2 22457 22955
23331 1 22947
23332 3 22948 23051 23266
23333 4 22544 22948 22949 23266
23334 5 22947 22951 23052 23265 23591
23335 8 22544 22950 22951 23052 23266 23267 23268 23270
23336 5 20263 20279 22951 23550 23590
23337 1 27931
23338 3 22957 23271 27931
23339 1 27932
23340 2 23277 27932
23341 2 23275 27931
23342 3 22203 22958 23594
23343 2 21911 22958
23344 8 22013 23055 23272 23274 23275 23276 27931 27933
23345 10 22359 22379 22474 22497 22528 22958 23594 23654 23791 23963
23346 2 23280 23655
23347 7 20342 22013 22022 23055 23056 23276 23279
23348 24 20343 22459 22462 22467 22470 22473 22546 22549 22550 22565 22831 23025 23057 23220 23273 23277 23278 23352 23497 23548 23697 23723 27929 27932
23349 7 22017 22219 22221 22302 22959 23281 23601
23350 10 22647 22960 23284 25013 25014 25075 25078 25093 25094 25096
23351 5 22019 22235 22322 23415 23619
23352 4 23348 23497 23723 26976
23353 2 23238 28524
23354 2 22773 28545
23355 1 23238
23356 2 23238 23728
23357 4 22773 23238 23288 23728
23358 1 23728
23359 3 21976 23100 24930
23360 14 21941 21959 22776 22777 23083 23093 23094 23238 23287 23289 23471 23675 23728 28546
23361 1 26935
23362 8 22383 22775 23096 23097 23099 24373 24817 24933
23363 6 22768 22776 22777 22802 23289 23759
23364 1 22777
23365 3 22777 22802 23670
23366 4 22808 23188 23296 24383
23367 4 21961 22778 23105 23186
23368 9 22368 22803 23006 23102 23188 23294 24379 24804 24928
23369 10 22803 22804 23190 23293 24384 24385 24805 24899 24938 24943
23370 2 22808 23240
23371 6 21964 23106 23109 24812 24818 24942
23372 12 22773 23101 23108 23239 23288 23295 23299 23471 26935 26954 28545 28550
23373 2 23085 23682
23374 3 23085 23087 23682
23375 3 23087 23191 23682
23376 3 21942 21985 23115
23377 7 23108 23239 23303 26927 26937 26945 26954
23378 3 22769 22782 23531
23379 3 23116 23195 26941
23380 5 26928 26933 26938 26948 26962
23381 5 21943 21985 22812 22813 23233
23382 2 23195 26941
23383 6 21965 22783 22809 22812 23234 23310
23384 3 22769 22782 23196
23385 4 22812 23199 23233 23235
23386 2 22783 22812
23387 5 21946 22787 23202 23309 23478
23388 2 22785 24814
23389 9 22769 22786 23007 23308 23476 23479 23536 23729 23731
23390 2 22791 23482
23391 10 21966 22206 23120 23123 23200 23311 23408 24387 24936 24944
23392 8 21945 21953 21992 22788 22789 22813 23122 23314
23393 2 22794 23123
23394 14 21945 21953 22780 22784 22788 22791 22811 23007 23122 23315 23316 23477 23485 23536
23395 4 21953 22798 23316 23485
23396 12 21994 23127 23205 23243 23318 23483 23575 23717 23726 23770 23781 26965
23397 4 22770 22796 23319 23529
23398 2 22771 22797
23399 6 22772 22799 23320 23489 23668 23673
23400 4 22001 23207 23743 23781
23401 2 22798 23489
23402 2 22798 23489
23403 6 22771 22800 23166 23319 23488 23741
23404 3 21954 23490 23743
23405 3 20243 22798 23589
23406 9 22818 23134 23495 23679 23691 23692 23724 23725 23784
23407 8 23167 23218 23219 23237 23325 23326 23695 23754
23408 12 22206 22953 23260 23311 23328 23391 24003 24142 24165 24166 24387 25088
23409 4 20246 22203 22958 23053
23410 11 20344 20351 22013 22022 22567 23272 23280 23443 23444 23516 23519
23411 12 22221 22224 22285 22304 22305 23282 23283 23446 23601 23602 23604 23821
23412 1 23446
23413 4 21908 22316 22960 23284
23414 2 22118 22960
23415 9 21916 22019 22021 22236 23286 23351 23442 23462 23619
23416 1 23624
23417 4 23152 23178 23701 23712
23418 3 23623 23636 23830
23419 5 22236 23462 23583 23586 24953
23420 8 20236 20240 20244 20261 22951 23550 23590 23811
23421 8 22201 22266 22267 22283 23555 23651 23789 23812
23422 5 22301 23445 23596 23815 27937
23423 21 20255 20268 20269 22201 22218 22282 22283 23461 23557 23558 23593 23598 23651 23790 23793 23794 23813 23814 27937 27944 27950
23424 3 23598 27942 27944
23425 1 27946
23426 1 27946
23427 3 23600 27943 27945
23428 12 22225 22288 23446 23525 23600 23601 23603 23664 23785 23787 27942 27946
23429 3 23603 23787 27947
23430 3 23603 23786 27947
23431 4 22309 23787 23788 27947
23432 3 23603 23786 27947
23433 6 22117 22274 22309 23606 23788 27947
23434 2 22117 23606
23435 3 22229 22230 22295
23436 5 22230 22313 22315 23621 23801
23437 5 23635 23835 25017 25076 25086
23438 5 22232 22319 23611 23615 23802
23439 7 23622 23623 23805 23807 23830 25017 25086
23440 8 22234 22321 22322 23616 23617 23666 23802 23819
23441 2 23619 23802
23442 5 22236 23415 23462 23619 24989
23443 9 23272 23410 23451 23501 23509 23511 23513 23516 23643
23444 4 23410 23516 23517 23519
23445 11 22216 22217 22271 22301 23422 23595 23596 23601 23797 23815 27936
23446 20 22117 22222 22225 22288 23411 23412 23428 23568 23601 23602 23603 23605 23606 23660 23663 23799 23800 23818 27946 27947
23447 7 24947 24955 24960 25023 25024 25038 25042
23448 7 22662 22681 22712 22900 24948 24957 24974
23449 4 22957 23500 23503 23505
23450 1 22957
23451 4 22957 23443 23501 23644
23452 5 22205 22291 22316 23803 23804
23453 6 22230 22311 22312 23621 23637 23825
23454 2 22229 22295
23455 3 23635 23828 23829
23456 4 22295 23609 23612 23829
23457 7 23612 23618 23623 23805 23831 23832 24989
23458 2 23618 24989
23459 2 23618 23834
23460 6 23615 23618 23802 23834 24989 25070
23461 3 23423 27937 27950
23462 6 22236 23415 23419 23442 24953 24989
23463 15 22051 22730 22821 23143 23171 23248 23624 23626 23638 23698 23699 23705 23706 23708 23710
23464 7 22047 22050 22104 22107 22108 22123 23706
23465 5 23226 23707 24906 24976 24990
23466 2 22731 23710
23467 6 23627 23629 23709 23710 23711 24976
23468 6 22052 22581 22733 23017 23640 23710
23469 7 23628 23629 23641 23642 23700 23711 24976
23470 1 23545
23471 9 23295 23360 23372 23675 23728 26946 26953 26954 26962
23472 1 23766
23473 2 23766 26962
23474 2 23670 23766
23475 5 23670 23681 23761 23766 26947
23476 7 23389 23672 23729 23731 23764 26948 26963
23477 4 22784 23394 23533 23536
23478 5 22787 22790 23202 23387 26941
23479 9 23164 23169 23244 23389 23536 23572 23715 23731 23732
23480 4 23244 23715 23733 26948
23481 4 23734 23758 23767 26966
23482 6 22791 23390 23534 23535 23536 26968
23483 5 21927 21994 23396 23726 23736
23484 1 26967
23485 7 22798 23315 23316 23394 23395 23537 26968
23486 7 22770 23244 23529 23685 23771 26949 26966
23487 2 23574 23771
23488 9 23319 23403 23529 23540 23718 23738 23739 23741 23771
23489 13 20243 22772 22798 22799 23321 23399 23401 23402 23538 23539 23668 23673 26968
23490 8 21933 21954 21969 22005 23170 23404 23743 23784
23491 4 23541 23720 23721 26950
23492 4 23577 26951 26972 26973
23493 13 22007 23540 23542 23543 23544 23576 23704 23719 23722 23741 23771 26950 26971
23494 2 23545 23752
23495 9 21971 22818 23134 23323 23406 23546 23580 23777 26952
23496 3 22957 23776 26974
23497 6 23348 23352 23778 26970 26976 27929
23498 2 22957 23502
23499 2 22957 27948
23500 2 22957 23449
23501 5 22957 23272 23443 23451 23643
23502 5 22957 23498 23752 23776 26957
23503 2 22957 23449
23504 1 27935
23505 2 22957 23449
23506 1 22957
23507 1 22957
23508 1 22957
23509 2 23443 23644
23510 1 23652
23511 2 23272 23443
23512 2 22269 27935
23513 4 23443 23645 23646 23653
23514 1 23647
23515 3 23648 23649 23650
23516 3 23410 23443 23444
23517 2 23444 23653
23518 1 23652
23519 4 23280 23410 23444 23653
23520 2 23566 27944
23521 2 23600 27944
23522 1 23600
23523 2 23569 23600
23524 5 22223 23569 23600 23662 23664
23525 6 22223 22309 23428 23570 23664 23787
23526 3 23571 23713 23760
23527 2 23571 26947
23528 5 23667 23733 23767 23780 26948
23529 9 22770 23319 23397 23486 23488 23738 23739 23771 26949
23530 5 23545 23577 23749 26972 26973
23531 11 21987 22769 22779 22782 23194 23378 23671 23672 23682 23713 23762
23532 4 23763 23765 26961 26964
23533 2 22784 23477
23534 2 23482 26968
23535 2 22791 23482
23536 14 22786 22791 22814 23164 23169 23244 23389 23394 23477 23479 23482 23732 23735 26968
23537 1 23485
23538 4 23489 23668 23768 26968
23539 2 23489 26968
23540 5 23488 23493 23718 23741 23771
23541 4 23491 23720 23721 26971
23542 5 23493 23719 23720 26950 26971
23543 7 21932 22197 23212 23493 23576 23741 23773
23544 7 21934 22197 22957 23493 23549 23704 23722
23545 10 23470 23494 23530 23704 23749 23752 23756 26956 26957 26972
23546 4 23495 23777 26952 26970
23547 6 22565 23011 23136 23221 23696 26976
23548 5 22459 23220 23221 23348 23697
23549 4 22197 22300 22957 23544
23550 5 22951 23336 23420 23590 23811
23551 1 27948
23552 5 20235 20244 22197 22300 27935
23553 1 27948
23554 1 27937
23555 4 22266 22301 23421 27937
23556 1 27937
23557 4 22218 23423 23790 27937
23558 3 23423 23598 27950
23559 1 27944
23560 1 27944
23561 1 27944
23562 1 27944
23563 5 20273 20278 22223 23597 23600
23564 1 23600
23565 3 22223 22303 23600
23566 5 20274 23520 23600 23659 27944
23567 4 23599 23600 23659 27944
23568 4 23446 23601 23657 23661
23569 4 22223 23523 23524 23600
23570 1 23525
23571 8 23526 23527 23671 23713 23714 23760 23779 26947
23572 4 23479 23715 26948 26963
23573 5 21968 23687 23716 23758 26971
23574 8 23487 23687 23688 23716 23758 23771 26967 26971
23575 6 21968 21994 23396 23717 23769 26971
23576 4 21932 22007 23493 23543
23577 4 23492 23530 26972 26973
23578 5 23674 23747 23774 26969 26973
23579 2 23777 26975
23580 8 22818 23218 23495 23694 23753 23754 26952 26976
23581 5 22656 22708 22893 23584 23585
23582 7 22656 22708 22709 23585 24954 24955 25940
23583 6 22023 22065 22140 22236 23419 23586
23584 4 22656 22706 22893 23581
23585 9 22706 22708 22893 23581 23582 24945 24954 25017 25040
23586 9 22065 22635 22656 22707 22709 23419 23583 24951 24953
23587 5 22065 22658 24219 24961 25042
23588 1 23809
23589 15 20239 20243 20244 22196 22207 22262 22798 22951 23263 23405 23591 23592 23808 23809 23810
23590 6 20261 20263 20280 23336 23420 23550
23591 5 22947 22951 23334 23589 23808
23592 3 20244 23589 23810
23593 3 22282 23423 23813
23594 6 22203 22958 23342 23345 23652 23791
23595 5 22213 22216 22271 22301 23445
23596 6 23422 23445 23815 23816 27936 27937
23597 4 20278 22223 22952 23563
23598 6 23423 23424 23558 27942 27944 27950
23599 2 23567 27944
23600 24 20260 20273 20274 22223 22303 23427 23428 23521 23522 23523 23524 23563 23564 23565 23566 23567 23569 23659 23662 23664 27942 27943 27944 27945
23601 25 22219 22220 22285 23281 23349 23411 23428 23445 23446 23568 23657 23658 23660 23661 23785 23795 23796 23797 23798 27938 27940 27941 27942 27946 27950
23602 2 23411 23446
23603 9 22225 23428 23429 23430 23432 23446 23786 23787 27947
23604 5 22224 22306 23411 23817 23821
23605 5 22117 22205 22291 23446 23818
23606 5 22117 23433 23434 23446 27947
23607 10 22230 22238 22292 22293 22310 23820 23824 23836 23837 25011
23608 1 23820
23609 3 22295 23456 23829
23610 2 22230 23831
23611 3 22319 23438 23802
23612 7 22230 22295 23456 23457 23805 23829 23831
23613 5 22230 22232 22296 23806 23831
23614 2 22232 23834
23615 6 22232 22320 23438 23460 23802 23834
23616 4 22322 23440 23666 23819
23617 4 22322 23440 23802 23819
23618 9 22232 23457 23458 23459 23460 23831 23834 24989 25070
23619 8 22235 22322 23351 23415 23441 23442 23802 24989
23620 3 22238 23822 23836
23621 4 22230 22313 23436 23453
23622 2 23439 23807
23623 10 23418 23439 23457 23636 23805 23830 23832 23833 24988 25071
23624 9 22045 22579 22730 22915 22970 23416 23463 23699 23705
23625 6 22579 23226 23639 23699 23707 24990
23626 5 22051 23463 23638 23708 23710
23627 5 23467 23699 23710 24976 24990
23628 9 22055 22593 22979 23469 23641 23642 23712 24976 24991
23629 14 22052 22733 22978 23018 23021 23177 23178 23467 23469 23700 23709 23710 23711 23712
23630 6 22583 22584 22988 22997 23152 23701
23631 9 22585 22600 22733 23020 23021 23178 23182 23701 25060
23632 1 23701
23633 9 22608 22997 22999 23701 23702 23703 24911 24994 25062
23634 4 22240 23284 23839 25013
23635 13 23437 23455 23805 23826 23827 23828 23829 23835 25012 25017 25074 25076 25086
23636 5 23418 23623 23830 25017 25081
23637 8 22230 22275 22294 22312 23453 23820 23825 25012
23638 2 23463 23626
23639 3 23625 23699 24990
23640 2 23468 23710
23641 3 23469 23628 24976
23642 4 23469 23628 23700 23712
23643 2 23443 23501
23644 3 22957 23451 23509
23645 1 23513
23646 1 23513
23647 1 23514
23648 1 23515
23649 1 23515
23650 1 23515
23651 4 23421 23423 23812 27937
23652 3 23510 23518 23594
23653 3 23513 23517 23519
23654 2 23345 23791
23655 1 23346
23656 3 23792 23794 23814
23657 2 23568 23601
23658 1 23601
23659 4 23566 23567 23600 27944
23660 3 23446 23601 27946
23661 2 23568 23601
23662 2 23524 23600
23663 1 23446
23664 5 22223 23428 23524 23525 23600
23665 2 22115 22117
23666 3 23440 23616 23819
23667 4 23528 23780 26948 26964
23668 5 23320 23399 23489 23538 23768
23669 5 23085 23682 23760 23783 26947
23670 10 22777 22802 23365 23474 23475 23681 23766 26947 26958 26960
23671 5 23531 23571 23713 23714 23779
23672 6 22769 23476 23531 23729 23762 23764
23673 2 23399 23489
23674 6 23578 23724 23747 23751 23755 23774
23675 5 22776 23360 23471 23759 26962
23676 1 23767
23677 1 23767
23678 2 23726 26965
23679 5 21971 23134 23406 23724 23727
23680 3 23301 23766 26962
23681 3 23475 23670 23766
23682 12 22779 23085 23087 23191 23373 23374 23375 23531 23669 23713 23760 23783
23683 2 23767 26964
23684 3 23758 23767 26965
23685 1 23486
23686 2 23737 23771
23687 4 23573 23574 23716 23758
23688 3 23574 23771 26967
23689 7 23725 23742 23743 23772 23782 23784 26969
23690 4 22005 23082 23745 23784
23691 5 23406 23724 23725 23746 23747
23692 5 22818 23082 23133 23406 23784
23693 4 21971 23727 23777 26975
23694 3 23218 23580 23754
23695 5 23011 23219 23326 23407 26976
23696 3 23011 23547 26976
23697 4 23221 23348 23548 23723
23698 2 22051 23463
23699 8 22579 23463 23624 23625 23627 23639 23710 24990
23700 4 23469 23629 23642 23712
23701 14 22584 22988 22997 23152 23178 23417 23630 23631 23632 23633 24992 25029 25060 25062
23702 2 23633 24994
23703 6 22997 22999 23159 23633 24661 24843
23704 9 22957 23493 23544 23545 23749 23752 26950 26956 26973
23705 2 23463 23624
23706 7 22047 22048 22051 22108 23248 23463 23464
23707 4 23226 23465 23625 24990
23708 4 22051 22105 23463 23626
23709 2 23467 23629
23710 13 22051 22052 22581 22731 23463 23466 23467 23468 23626 23627 23629 23640 23699
23711 4 23467 23469 23629 24976
23712 9 22055 22732 23152 23178 23417 23628 23629 23642 23700
23713 6 23526 23531 23571 23671 23682 23760
23714 2 23571 23671
23715 5 23244 23479 23480 23572 26948
23716 4 23573 23574 23687 26971
23717 5 23396 23575 23770 26971 26973
23718 3 23488 23540 23741
23719 3 23493 23542 26971
23720 5 23491 23541 23542 26950 26971
23721 5 23491 23541 26950 26971 26973
23722 4 21934 22007 23493 23544
23723 5 23221 23348 23352 23697 26976
23724 7 23406 23674 23679 23691 23727 23747 23751
23725 7 23406 23689 23691 23746 23747 23782 23784
23726 6 23396 23483 23678 23736 23758 26965
23727 6 21971 23679 23693 23724 23751 26975
23728 7 23238 23288 23356 23357 23358 23360 23471
23729 5 22769 23389 23476 23672 23764
23730 3 23766 26948 26962
23731 4 23389 23476 23479 26963
23732 4 23164 23169 23479 23536
23733 5 23244 23480 23528 23767 26948
23734 4 23481 23758 26966 26967
23735 5 22814 23206 23536 23768 26968
23736 5 21927 21968 23483 23726 23758
23737 2 23686 23771
23738 2 23488 23529
23739 2 23488 23529
23740 4 23770 23781 26969 26973
23741 8 22800 23212 23403 23488 23493 23540 23543 23718
23742 3 23689 23782 26969
23743 9 21954 22001 23400 23404 23490 23689 23772 23781 23784
23744 1 26973
23745 5 21933 21955 22005 23082 23690
23746 2 23691 23725
23747 7 23578 23674 23691 23724 23725 23782 26969
23748 2 26951 26972
23749 6 23530 23545 23704 26956 26972 26973
23750 4 23756 23757 23775 26974
23751 6 23674 23724 23727 23755 26973 26975
23752 6 22957 23494 23502 23545 23704 26957
23753 4 23580 26952 26970 26976
23754 7 23218 23219 23237 23407 23580 23694 26976
23755 4 23674 23751 23774 26973
23756 6 23545 23750 23775 26957 26972 26974
23757 2 23750 26974
23758 12 21968 23481 23573 23574 23684 23687 23726 23734 23736 23767 26965 26967
23759 5 22768 22776 23363 23675 26962
23760 7 23526 23571 23669 23682 23713 23783 26947
23761 1 23475
23762 4 21987 22769 23531 23672
23763 3 23532 26961 26964
23764 3 23476 23672 23729
23765 6 23532 26933 26939 26948 26961 26964
23766 11 22802 23472 23473 23474 23475 23670 23680 23681 23730 26948 26962
23767 16 23244 23481 23528 23676 23677 23683 23684 23733 23758 23780 26933 26939 26940 26964 26965 26966
23768 8 22797 23206 23317 23320 23538 23668 23735 26968
23769 4 21927 21968 21994 23575
23770 5 23396 23717 23740 23781 26973
23771 12 23486 23487 23488 23493 23529 23540 23574 23686 23688 23737 26967 26971
23772 4 23689 23743 23781 26969
23773 3 22197 23212 23543
23774 4 23578 23674 23755 26973
23775 5 23750 23756 26951 26972 26974
23776 5 22957 23496 23502 26957 26974
23777 6 21971 23495 23546 23579 23693 26975
23778 1 23497
23779 2 23571 23671
23780 4 23528 23667 23767 26964
23781 9 23207 23318 23396 23400 23740 23743 23770 23772 26969
23782 5 23689 23725 23742 23747 26969
23783 3 23669 23682 23760
23784 9 22005 23082 23406 23490 23689 23690 23692 23725 23743
23785 3 23428 23601 27946
23786 4 23430 23432 23603 27947
23787 7 22309 23428 23429 23431 23525 23603 27947
23788 4 22309 23431 23433 27947
23789 2 22267 23421
23790 2 23423 23557
23791 3 23345 23594 23654
23792 2 23656 23814
23793 2 22283 23423
23794 2 23423 23656
23795 1 23601
23796 3 23601 27938 27941
23797 7 22214 22217 22219 22271 22284 23445 23601
23798 1 23601
23799 1 23446
23800 1 23446
23801 1 23436
23802 14 22235 22276 22319 22321 22322 23438 23440 23441 23460 23611 23615 23617 23619 24989
23803 1 23452
23804 2 22316 23452
23805 7 23439 23457 23612 23623 23635 23829 25086
23806 2 22232 23613
23807 2 23439 23622
23808 4 22947 23263 23589 23591
23809 3 22196 23588 23589
23810 3 20244 23589 23592
23811 2 23420 23550
23812 3 22283 23421 23651
23813 10 20255 20263 20267 20268 22201 22265 22282 22956 23423 23593
23814 3 23423 23656 23792
23815 4 23422 23445 23596 27936
23816 2 23596 27937
23817 5 22238 22306 22308 23604 23823
23818 4 22239 22291 23446 23605
23819 5 22322 23440 23616 23617 23666
23820 8 22230 22275 22293 22294 23607 23608 23637 25011
23821 2 23411 23604
23822 5 22238 22290 22298 22307 23620
23823 1 23817
23824 2 22292 23607
23825 3 23453 23637 25012
23826 1 23635
23827 3 23635 25012 25074
23828 2 23455 23635
23829 7 22295 23455 23456 23609 23612 23635 23805
23830 5 23418 23439 23623 23636 25017
23831 8 22230 22232 22297 23457 23610 23612 23613 23618
23832 4 23457 23623 24988 24989
23833 2 23623 24988
23834 7 22232 23459 23460 23614 23615 23618 25070
23835 2 23437 23635
23836 4 22238 23607 23620 25011
23837 2 23607 25011
23838 1 25010
23839 1 23634
23840 5 22323 23848 23849 24039 24060
23841 2 22324 23850
23842 5 22323 23849 23850 24039 25461
23843 6 22324 23850 23851 25152 25167 25461
23844 5 22324 23851 23853 23885 25152
23845 2 23856 25155
23846 16 22325 22326 22327 22440 22485 23854 23855 23856 23857 23887 23888 24085 25153 25154 25155 25199
23847 3 22326 25156 25168
23848 4 22323 22330 23840 24060
23849 4 22323 23840 23842 24039
23850 7 22323 22324 22331 23841 23842 23843 25461
23851 5 22324 23843 23844 25152 25167
23852 4 22324 22439 23886 24083
23853 1 23844
23854 2 23846 25153
23855 1 23846
23856 3 23845 23846 25155
23857 3 22326 22327 23846
23858 3 21106 23862 25115
23859 1 28663
23860 4 22692 23911 24392 25262
23861 11 22341 22342 22357 23895 23908 23914 23936 25103 25118 25119 25410
23862 8 21106 22692 23858 23892 23911 23912 25115 25286
23863 3 23911 25212 25286
23864 5 22448 24001 24161 24385 25272
23865 3 22538 22804 23998
23866 2 23985 25274
23867 9 22423 22425 22452 24001 24004 24005 24006 24141 25273
23868 3 24015 24149 24181
23869 5 22461 24016 24178 25233 25474
23870 2 24017 25235
23871 3 24019 24184 25237
23872 3 24026 24062 24186
23873 7 24022 24024 25237 25239 25281 25475 25796
23874 5 24026 24032 25236 25240 25792
23875 3 22527 22549 24029
23876 4 22549 24025 24029 24160
23877 4 24160 25281 25797 25799
23878 5 24027 24032 25238 25243 25793
23879 9 22529 22552 24032 24033 24044 24138 24139 24159 24189
23880 1 24036
23881 4 22484 22571 24036 26056
23882 2 22482 22572
23883 4 22484 22533 22572 24036
23884 4 25303 28639 28645 28672
23885 4 22324 23844 24082 24083
23886 13 22331 22439 23222 23852 24083 24507 24508 24509 24512 24820 24822 24877 24878
23887 2 23846 24085
23888 8 22440 23846 24084 24085 24086 24087 24510 24823
23889 5 22506 22513 24041 24106 24107
23890 5 23929 24243 24444 24793 25337
23891 5 23930 23931 24116 24244 24528
23892 8 22688 22690 22691 22692 22693 23862 24393 25115
23893 2 22690 25115
23894 3 23915 24393 25099
23895 3 23861 23914 25119
23896 16 22376 22455 22458 22520 24014 24015 24080 24147 24148 24151 24152 24179 24937 25232 25809 28655
23897 4 24014 24152 25237 25809
23898 10 24014 24018 24127 24155 25237 25276 25475 25780 25791 28655
23899 6 22460 22461 22564 24017 24020 24061
23900 4 24018 24155 25276 25475
23901 6 22466 22574 22575 24026 24156 24157
23902 7 22466 22564 22573 24020 24026 24187 24188
23903 1 22576
23904 5 22575 22576 24026 24043 24157
23905 5 24034 24196 24456 24712 25486
23906 1 24034
23907 4 24034 25282 25486 25488
23908 2 22341 23861
23909 3 25119 25410 26001
23910 1 25115
23911 8 22692 23860 23862 23863 23912 25212 25262 25286
23912 2 23862 23911
23913 2 22089 22342
23914 3 22342 23861 23895
23915 3 22691 23894 24393
23916 1 28642
23917 3 25323 25361 28642
23918 5 23936 25100 25104 25369 25411
23919 7 22344 22400 24102 24627 24628 24909 24910
23920 8 22401 22823 23973 24103 24322 24324 24903 25325
23921 7 22347 22402 22505 22510 24103 24105 25325
23922 9 22346 22503 22504 23974 24104 24108 24495 24853 25742
23923 6 22346 22504 22512 24041 24092 24107
23924 4 22404 22506 23976 24107
23925 6 22348 22404 22507 22514 23976 24109
23926 5 23231 23975 24096 24112 24329
23927 2 24114 25332
23928 10 22348 22507 23976 23978 24097 24111 24114 25120 25329 25332
23929 3 23890 24243 25337
23930 7 23891 24116 24244 24444 25122 25337 25777
23931 9 23891 24116 24117 24337 24528 25109 25122 25123 25380
23932 2 28643 28673
23933 5 22358 23936 23937 24355 25116
23934 3 23936 25101 25116
23935 6 23937 24355 25102 25116 25217 25414
23936 12 22341 22357 23861 23918 23933 23934 24355 25100 25101 25104 25116 25117
23937 5 22358 23933 23935 24355 25116
23938 5 23954 23956 23957 24310 24428
23939 3 20396 23972 24428
23940 2 22530 23960
23941 1 23963
23942 1 23963
23943 4 20351 22479 23960 23961
23944 2 23963 24054
23945 4 23964 23965 23997 24055
23946 3 23969 23996 24056
23947 2 23969 23996
23948 2 23969 23996
23949 1 23965
23950 4 23964 23969 23997 24056
23951 3 22380 23955 24535
23952 2 23969 23996
23953 6 23965 23966 23967 23968 23970 23997
23954 6 20419 23938 23957 23971 24428 24782
23955 8 22380 22399 23951 23995 24058 24533 24535 24724
23956 5 23938 23972 24310 24428 24431
23957 5 20419 23938 23954 24310 24782
23958 1 24046
23959 1 24050
23960 10 22479 22530 23280 23940 23943 24045 24047 24048 24050 24051
23961 5 20351 20374 20386 20392 23943
23962 6 22398 22399 22481 23994 23996 24056
23963 14 22363 22379 22397 22528 23345 23941 23942 23944 23993 24046 24049 24052 24053 24054
23964 5 23945 23950 23997 24055 24056
23965 4 23945 23949 23953 23997
23966 2 23953 23997
23967 1 23953
23968 1 23953
23969 10 23946 23947 23948 23950 23952 23996 23997 24056 24059 24431
23970 4 23953 23997 24431 24637
23971 4 23954 24428 24445 24782
23972 8 20396 20398 20428 20523 23939 23956 24428 24431
23973 3 23920 24103 25325
23974 2 23922 24495
23975 2 23926 24096
23976 13 22348 22404 23924 23925 23928 24095 24097 24107 24108 24110 24113 25771 25772
23977 2 24097 25329
23978 2 23928 25332
23979 1 25336
23980 2 25122 25337
23981 2 25123 25337
23982 2 24100 25123
23983 2 24117 25123
23984 6 23999 24000 24002 25471 25472 25787
23985 3 23866 24002 25274
23986 1 24170
23987 2 24144 24168
23988 3 23328 24168 24169
23989 4 22427 24145 24170 24171
23990 5 22943 22947 22953 23328 24169
23991 8 22427 22946 22948 22955 23261 23264 24145 24171
23992 2 22947 23329
23993 4 22363 22397 23963 24053
23994 2 22398 23962
23995 6 22365 22380 22399 23955 24577 24724
23996 14 22380 22399 23946 23947 23948 23952 23962 23969 24056 24057 24059 24464 24535 24671
23997 9 23945 23950 23953 23964 23965 23966 23969 23970 24431
23998 6 22538 22804 23865 24161 24899 24943
23999 3 23984 25471 25787
24000 4 23984 25449 25472 25789
24001 15 22422 22423 22448 22449 22450 22452 23864 23867 24161 24162 24163 25084 25272 25273 25470
24002 4 23984 23985 25274 25471
24003 6 23408 24164 24165 24375 24386 25088
24004 3 23867 24141 25273
24005 5 22424 22425 22452 23867 24167
24006 4 22425 23867 24172 25273
24007 3 22426 24173 25274
24008 3 22427 24172 24174
24009 1 24177
24010 3 22457 24174 24177
24011 1 24177
24012 7 22431 22454 22557 24146 24173 24176 24177
24013 1 24064
24014 6 23896 23897 23898 24152 25237 28655
24015 13 22458 22565 23868 23896 24147 24149 24150 24179 24180 24181 24182 25473 25809
24016 2 22461 23869
24017 6 22461 23870 23899 24154 25235 25641
24018 4 23898 23900 24155 25475
24019 4 23871 24184 25237 25809
24020 6 22460 22564 23899 23902 24061 24187
24021 9 22464 22467 24153 24160 24182 24183 24184 25473 25809
24022 2 23873 25281
24023 3 25476 28636 28668
24024 6 23873 24160 24184 25237 25281 25797
24025 4 22467 22549 23876 24160
24026 13 22466 22526 23872 23874 23901 23902 23904 24062 24157 24186 24188 25236 25642
24027 2 23878 25243
24028 3 24063 28636 28668
24029 6 22471 22527 22549 23875 23876 24160
24030 4 24158 24160 25482 25804
24031 3 22471 22694 24160
24032 6 23874 23878 23879 25240 25242 25243
24033 2 23879 24044
24034 7 23905 23906 23907 24196 24457 25486 25488
24035 7 24203 24304 24457 24797 25282 25488 25684
24036 5 22484 23880 23881 23883 26056
24037 1 22330
24038 1 22330
24039 9 22330 23840 23842 23849 24060 25459 25461 25462 25467
24040 1 25467
24041 8 22336 22512 22513 23889 23923 24092 24106 24107
24042 1 22576
24043 1 23904
24044 2 23879 24033
24045 1 23960
24046 2 23958 23963
24047 1 23960
24048 1 23960
24049 1 23963
24050 2 23959 23960
24051 1 23960
24052 1 23963
24053 2 23963 23993
24054 2 23944 23963
24055 2 23945 23964
24056 6 23946 23950 23962 23964 23969 23996
24057 1 23996
24058 4 23955 24533 24535 24727
24059 7 20415 23969 23996 24431 24464 24681 24730
24060 4 22330 23840 23848 24039
24061 2 23899 24020
24062 5 23872 24026 24185 24188 25642
24063 2 24028 28636
24064 1 24013
24065 10 23080 24067 24078 24376 24378 25272 25724 25782 28537 28554
24066 4 24078 24385 24802 24805
24067 2 24065 28554
24068 3 23211 24075 24136
24069 2 24079 24136
24070 2 28652 28655
24071 5 22394 23217 24079 24125 24137
24072 2 28652 28655
24073 4 25276 28650 28653 28680
24074 2 23210 24079
24075 5 23131 23210 23211 24068 24136
24076 1 24079
24077 5 22390 23132 23209 23214 24079
24078 6 23080 24065 24066 24385 24802 25272
24079 15 22390 23210 23211 23214 24069 24071 24074 24076 24077 24124 24125 24136 24137 24574 28655
24080 5 22376 23217 23896 24125 28655
24081 3 24126 25780 28655
24082 1 23885
24083 5 22324 23852 23885 23886 24509
24084 3 23888 24511 24823
24085 3 23846 23887 23888
24086 1 23888
24087 6 22332 22440 23174 23888 24510 24880
24088 4 22503 22508 24101 24102
24089 2 22503 24102
24090 5 22503 24102 24104 24634 24849
24091 2 24104 24634
24092 3 22512 23923 24041
24093 2 24108 24865
24094 7 22505 24105 24409 24419 25591 25767 25768
24095 4 22504 23976 24107 24108
24096 10 23231 23926 23975 24329 24395 24409 24919 25328 25377 25769
24097 6 23928 23976 23977 24113 25329 25772
24098 5 22507 23232 24114 24441 24590
24099 5 24115 24415 24925 25336 25775
24100 2 23982 25123
24101 3 22503 22508 24088
24102 13 22400 22503 23919 24088 24089 24090 24410 24628 24847 24849 24902 24912 24917
24103 6 22510 23920 23921 23973 24903 25325
24104 6 22503 23922 24090 24091 24634 25742
24105 6 22505 23921 24094 25325 25766 25767
24106 3 22513 23889 24041
24107 8 22504 22506 23889 23923 23924 23976 24041 24095
24108 10 22504 23922 23976 24093 24095 24327 24853 24865 25326 25772
24109 2 22514 23925
24110 4 23976 25327 25771 25772
24111 3 22348 22507 23928
24112 5 23231 23926 24329 24904 24920
24113 5 23976 24097 25327 25771 25772
24114 7 22507 23927 23928 24098 24441 24592 25332
24115 2 24099 25775
24116 4 23891 23930 23931 25122
24117 4 23931 23983 24337 25123
24118 1 24400
24119 3 25353 25575 26472
24120 9 21180 22408 22409 22410 24400 25352 25384 25575 26472
24121 2 25575 26472
24122 3 22411 25575 26472
24123 9 22411 22413 24319 24367 24369 24401 25316 25385 25575
24124 3 24079 24574 28655
24125 5 23217 24071 24079 24080 28655
24126 2 24081 28655
24127 2 23898 28655
24128 1 28554
24129 2 24378 28554
24130 1 28554
24131 2 24378 28554
24132 2 24378 28554
24133 3 22370 23088 28622
24134 11 22370 22371 22373 22384 22388 23088 23089 24806 24807 28623 28657
24135 4 22388 23129 23208 28657
24136 6 23210 23211 24068 24069 24075 24079
24137 4 22394 23214 24071 24079
24138 1 23879
24139 2 22559 23879
24140 3 22944 24164 25088
24141 3 23867 24004 25273
24142 6 23328 23408 24166 24168 24987 25088
24143 1 24170
24144 2 23987 24168
24145 4 22427 23989 23991 24171
24146 5 22454 22535 22557 24012 24173
24147 2 23896 24015
24148 1 23896
24149 3 23868 24015 24181
24150 2 24015 24181
24151 3 23896 25232 25809
24152 4 23896 23897 24014 25809
24153 2 24021 25473
24154 2 24017 25641
24155 4 23898 23900 24018 25276
24156 4 22536 22574 22575 23901
24157 4 22575 23901 23904 24026
24158 2 24030 25482
24159 3 22469 22537 23879
24160 20 22467 22471 22694 22830 23876 23877 24021 24024 24025 24029 24030 24031 24184 24300 24667 25480 25482 25797 25799 25804
24161 6 22450 22538 23864 23998 24001 24385
24162 1 24001
24163 5 22422 22452 24001 25007 25083
24164 6 22944 24003 24140 24386 25004 25088
24165 4 23408 24003 24375 24387
24166 2 23408 24142
24167 4 22424 22425 22515 24005
24168 7 23328 23987 23988 24142 24144 24987 25090
24169 3 23328 23988 23990
24170 13 22427 22453 22515 22540 22541 22945 23327 23986 23989 24143 25007 25009 25089
24171 3 23989 23991 24145
24172 5 22425 22427 22542 24006 24008
24173 7 22426 22428 22534 22535 24007 24012 24146
24174 4 22427 22457 24008 24010
24175 2 22428 22534
24176 3 22431 22557 24012
24177 7 22431 22457 22517 24009 24010 24011 24012
24178 1 23869
24179 3 23896 24015 25809
24180 2 22565 24015
24181 5 23868 24015 24149 24150 25473
24182 8 22467 22522 22523 22565 22566 24015 24021 25473
24183 2 22464 24021
24184 7 23871 24019 24021 24024 24160 25237 25809
24185 1 24062
24186 2 23872 24026
24187 2 23902 24020
24188 3 23902 24026 24062
24189 2 22552 23879
24190 12 22610 22721 22722 24194 24195 24280 24281 24317 24358 24405 25216 25268
24191 2 22338 24282
24192 3 22339 24283 25345
24193 1 24283
24194 10 20431 21905 22406 22610 24190 24246 24247 24298 24404 24405
24195 5 22610 22721 22722 24190 24281
24196 5 23905 24034 24303 24457 24712
24197 6 22695 22697 22877 23027 24669 24723
24198 8 20354 22619 24248 24249 24284 24531 24543 24735
24199 3 22705 24305 24308
24200 5 22705 24304 24305 25511 25648
24201 3 22654 24578 24738
24202 5 24538 24578 24608 24677 24734
24203 7 24035 24304 25218 25510 25514 25684 25690
24204 3 24308 24713 24800
24205 4 22628 24549 24679 24781
24206 6 22627 22628 22677 22725 22749 24740
24207 5 22653 22845 24288 24686 24742
24208 14 22844 22845 22923 24251 24605 24609 24615 24713 24714 24715 24779 24800 25219 25651
24209 6 22633 24314 24617 24684 24743 24746
24210 5 24288 24686 24745 24749 25672
24211 13 22627 22628 22677 24285 24552 24616 24618 24739 24740 24741 24748 24751 24781
24212 8 22633 22682 22850 22888 24288 24314 24746 24756
24213 5 24450 24560 24696 24699 24757
24214 4 22680 24289 24563 24565
24215 4 24430 24643 24757 24761
24216 7 24451 24452 24473 24643 24757 24760 24761
24217 7 20469 24312 24474 24475 24646 24721 24762
24218 8 22682 24288 24290 24599 24620 24703 25529 25672
24219 7 22658 22659 22854 22896 23587 24961 25038
24220 7 22638 22682 24290 24293 24599 25227 25249
24221 1 24293
24222 3 22713 24567 25021
24223 4 24292 24707 24766 25676
24224 12 24293 24454 24706 24764 24765 24766 24767 24768 25388 25389 25439 25678
24225 2 22682 24293
24226 4 24293 24454 25389 25437
24227 4 20509 22641 24264 24950
24228 4 22682 24272 24293 24809
24229 4 24272 25437 25607 25680
24230 1 24316
24231 5 20394 21079 25228 25881 26035
24232 4 20394 25228 25229 25436
24233 4 24294 24773 25261 25285
24234 1 24279
24235 2 24279 24353
24236 3 24443 24449 24502
24237 7 23005 24330 24449 24504 24905 24921 24925
24238 4 24397 24399 24417 25378
24239 4 23005 24449 24503 24657
24240 7 20440 24331 24333 24443 24593 25246 25331
24241 3 24335 24398 25331
24242 6 24332 24417 24658 24659 24922 24924
24243 11 23890 23929 24335 24444 24528 24793 24924 25246 25331 25337 25349
24244 4 23891 23930 24444 24528
24245 4 24340 25266 25318 25343
24246 8 24194 24298 24340 24404 25266 25267 25343 25356
24247 9 22356 22406 24194 24298 24360 24422 25267 25357 25562
24248 13 20381 22700 24198 24284 24459 24460 24529 24530 24531 24669 24723 24795 24798
24249 6 20366 20382 20387 24198 24543 24735
24250 7 24462 24464 24533 24674 24725 24727 24730
24251 7 24208 24308 24713 24714 24736 24796 25685
24252 2 24314 24743
24253 11 20408 22626 22654 22678 22847 24466 24468 24541 24644 24680 24738
24254 3 23024 24579 24780
24255 3 22680 22889 24754
24256 16 20377 20395 22924 24311 24429 24467 24468 24469 24553 24580 24622 24688 24698 24734 24753 24780
24257 10 24287 24744 25219 25220 25223 25651 25654 25655 25671 25686
24258 3 20397 24469 24622
24259 8 21328 24314 24470 24700 24716 24758 25935 25936
24260 13 22680 24289 24430 24557 24564 24595 24695 24701 24754 24755 24757 24784 24808
24261 6 22634 22680 24289 24542 24563 24973
24262 5 20498 20500 20524 24289 24542
24263 4 22713 22859 24567 24704
24264 9 20507 20509 21260 22641 24227 24314 24705 24786 24787
24265 6 24292 24707 25463 25660 25676 25688
24266 1 24293
24267 3 22869 24477 24708
24268 5 25252 25389 25451 25607 25679
24269 9 22665 22743 22870 22907 24291 24708 24709 24769 24980
24270 3 22644 24315 24873
24271 5 24710 24772 25373 25431 25680
24272 9 22682 24228 24229 24315 24455 24772 24809 25437 25680
24273 4 24710 25373 25431 25681
24274 2 24315 24772
24275 5 22644 24315 24316 24873 25283
24276 5 22746 24348 24364 24965 24971
24277 5 24294 25229 25260 25586 25613
24278 6 21142 21457 24426 25835 26744 26748
24279 20 21352 21353 21356 21359 21435 21439 21441 21473 24234 24235 24318 24323 24353 24356 24426 25810 25811 25829 25835 26740
24280 4 24190 25216 25268 25343
24281 3 22722 24190 24195
24282 6 22338 22722 24191 24354 24358 25344
24283 7 22339 22352 24192 24193 24406 25269 25345
24284 7 22619 24198 24248 24460 24602 24603 24795
24285 5 22631 22677 24211 24751 24754
24286 6 22633 22682 24314 24617 24684 24693
24287 2 24257 25223
24288 15 22653 22682 22850 24207 24210 24212 24218 24682 24686 24692 24697 24703 24749 24756 24759
24289 14 20498 22680 24214 24260 24261 24262 24430 24542 24563 24564 24565 24575 24718 24973
24290 5 24218 24220 24599 25249 25529
24291 5 22742 22863 24269 24769 24980
24292 4 24223 24265 24707 25676
24293 19 22638 22682 24220 24221 24224 24225 24226 24228 24266 24454 24764 24766 24767 24770 24809 25227 25437 25440 25534
24294 9 24233 24277 25229 25230 25260 25261 25285 25542 25665
24295 2 25230 25290
24296 7 20432 20440 20443 24336 24396 24414 25377
24297 6 20443 24332 24336 24397 25265 25378
24298 5 20431 24194 24246 24247 25267
24299 9 20433 21069 21842 22760 24391 24424 25292 25888 25919
24300 3 24160 24667 25804
24301 8 22694 22874 24456 24667 24668 24712 24775 24801
24302 3 22615 24668 24801
24303 2 24196 24712
24304 9 22705 23058 23064 23067 23072 24035 24200 24203 24797
24305 5 22705 24199 24200 25511 25648
24306 3 24536 24675 24735
24307 6 20361 24548 24636 24638 24735 24777
24308 10 22705 23078 24199 24204 24251 24713 24736 24796 24800 25512
24309 2 24548 24735
24310 8 23938 23956 23957 24431 24550 24639 24737 24782
24311 3 24256 24622 24698
24312 4 20397 24217 24646 24762
24313 1 22863
24314 45 20372 20375 20390 20393 20399 20441 20456 20460 20486 21251 21260 21334 22633 22641 22682 22846 22850 22865 22888 24209 24212 24252 24259 24264 24286 24536 24539 24551 24641 24676 24684 24693 24731 24743 24746 24750 24758 24778 24785 24786 24787 25934 25935 25936 26024
24315 12 22641 22644 22682 24270 24272 24274 24275 24772 24873 24950 25283 25681
24316 10 20467 20535 21078 22644 24230 24275 24950 25283 25453 26033
24317 2 24190 25216
24318 3 21439 21473 24279
24319 8 24123 24367 24368 24369 25299 25316 25317 25355
24320 2 22900 24763
24321 6 22757 24351 24365 24366 24874 25360
24322 8 22401 22767 23920 24366 25321 25325 25360 25542
24323 2 24279 24353
24324 8 22823 23920 24411 24412 24585 24903 24913 24915
24325 6 22735 23256 24413 24633 24790 24916
24326 10 24487 24490 24632 24634 24849 24893 25324 25697 25742 25765
24327 5 24108 24497 24865 24867 25326
24328 10 24497 24498 24499 24864 24866 24869 24870 24871 24918 25828
24329 7 20440 23926 24096 24112 24414 24919 24920
24330 14 24237 24415 24442 24448 24501 24572 24573 24591 24655 24656 24905 24925 25330 25775
24331 5 20440 24240 24398 24593 25331
24332 8 20432 20443 24242 24297 24397 24398 24922 24924
24333 4 24240 24443 25246 25337
24334 7 24503 24504 24505 24657 24923 24925 25337
24335 5 24241 24243 24398 24924 25331
24336 5 20443 24296 24297 25265 25377
24337 7 23931 24117 24400 25349 25352 25380 25382
24338 2 22354 25355
24339 6 22354 22419 24370 24433 24435 25355
24340 5 24245 24246 25266 25343 25560
24341 4 22728 22741 24561 24979
24342 4 22662 22742 24600 24980
24343 2 22743 24980
24344 5 22669 22743 22762 22939 24980
24345 3 22744 22752 24362
24346 10 21276 21305 21306 22729 22744 22745 22753 22764 24362 24363
24347 2 22746 24363
24348 5 22746 24276 24363 24971 24977
24349 4 22671 24774 24965 24981
24350 7 22757 22766 24357 24711 24972 24982 25027
24351 9 22757 24321 24357 24365 24571 24874 24977 24982 25360
24352 11 22351 22420 24420 24421 24426 24434 25387 26175 26553 26769 26773
24353 3 24235 24279 24323
24354 5 24282 24358 25268 25344 25926
24355 17 22352 22357 22358 23933 23935 23936 23937 24406 24407 25217 25269 25270 25271 25370 25371 25842 28683
24356 3 24279 24426 25835
24357 4 22757 24350 24351 24982
24358 6 22722 24190 24282 24354 25268 25344
24359 4 22353 22354 22418 24432
24360 6 22356 24247 24422 24424 25357 25563
24361 1 25564
24362 11 21276 21326 22744 22752 22762 22763 22941 24345 24346 24980 25930
24363 13 21218 21242 21306 22719 22745 22746 22754 22764 24346 24347 24348 24569 24977
24364 5 22746 24276 24774 24965 24981
24365 4 24321 24351 24874 25360
24366 10 22748 22757 22758 22766 22767 22942 23050 24321 24322 25360
24367 3 24123 24319 25316
24368 2 24319 25355
24369 8 22354 22413 22414 22415 22416 24123 24319 25355
24370 6 22349 22350 22354 22355 22419 24339
24371 4 23095 23290 24380 28537
24372 1 24380
24373 5 23097 23362 24876 24929 24933
24374 5 23095 23099 23290 24381 24932
24375 11 22809 23234 23310 24003 24165 24386 24387 24813 24900 24936 24944
24376 7 23080 24065 24802 24805 24926 28537 28541
24377 3 24803 24897 28543
24378 6 24065 24129 24131 24132 25724 28554
24379 5 23368 24804 24898 24928 24940
24380 6 24371 24372 24803 24815 24816 28537
24381 2 24374 24932
24382 3 22808 24819 24941
24383 4 22368 23188 23366 24939
24384 3 22804 23369 24943
24385 8 23369 23864 24066 24078 24161 24805 24899 25272
24386 7 22808 22809 22944 23117 24003 24164 24375
24387 7 23311 23391 23408 24165 24375 24813 24944
24388 5 22759 22760 24391 24408 24418
24389 4 22760 24392 24418 25918
24390 3 24397 24417 24922
24391 10 22759 22760 24299 24388 24408 25292 25908 25911 25917 25919
24392 7 21842 22692 22760 23860 24389 25262 25918
24393 10 22689 22690 22691 22693 23892 23894 23915 25099 25114 25115
24394 2 24409 25377
24395 2 24096 25377
24396 3 24296 24414 25377
24397 7 24238 24297 24332 24390 24417 24922 25378
24398 8 20432 20440 24241 24331 24332 24335 24924 25331
24399 5 22829 24238 24417 25349 25378
24400 5 24118 24120 24337 25352 25384
24401 4 22411 24123 25385 25575
24402 3 24421 24435 25386
24403 1 25343
24404 4 20431 24194 24246 25343
24405 5 20431 24190 24194 25216 25343
24406 5 22339 22352 24283 24355 25269
24407 2 24355 25269
24408 5 24388 24391 24418 25908 25918
24409 8 22405 23231 24094 24096 24394 24419 25377 25768
24410 4 24102 24849 24902 24914
24411 2 24324 24903
24412 3 24324 24585 24915
24413 8 22510 22826 23258 24325 24585 24790 24903 24916
24414 8 20432 20440 24296 24329 24396 24919 25328 25377
24415 4 24099 24330 24925 25775
24416 2 24504 24925
24417 12 22829 24238 24242 24390 24397 24399 24658 24659 24922 24924 25349 25774
24418 5 22760 24388 24389 24408 25918
24419 5 22405 22505 23231 24094 24409
24420 2 24352 26769
24421 5 22419 24352 24402 24434 24435
24422 3 22356 24247 24360
24423 1 25564
24424 11 21842 22356 22407 24299 24360 25358 25563 25564 25887 25888 26565
24425 5 24451 24642 24702 24757 24760
24426 7 21142 24278 24279 24352 24356 25835 26553
24427 6 24594 24672 24673 24674 24734 24776
24428 8 20396 23938 23939 23954 23956 23971 23972 24445
24429 3 24256 24553 24688
24430 11 20427 20498 20524 24215 24260 24289 24564 24595 24718 24757 24761
24431 25 20377 20391 20397 20398 20418 23956 23969 23970 23972 23997 24059 24310 24475 24540 24550 24601 24622 24637 24681 24687 24698 24719 24720 24721 24762
24432 3 22353 22418 24359
24433 2 22419 24339
24434 5 22355 22419 22420 24352 24421
24435 6 22419 24339 24402 24421 25355 25386
24436 5 22736 22737 23229 23259 24446
24437 3 20436 24446 24904
24438 1 24447
24439 2 24447 24791
24440 11 20596 22828 23003 23163 23184 23229 23230 24447 24448 24792 24868
24441 5 23232 24098 24114 24447 24590
24442 2 24330 24448
24443 12 20440 20563 22739 24236 24240 24333 24449 24502 24503 24923 24984 25337
24444 6 23890 23930 24243 24244 24528 25337
24445 6 20396 20572 23971 24428 24782 26030
24446 14 20554 22347 22510 22736 22738 23231 24436 24437 24586 24587 24588 24589 24904 27954
24447 8 22507 22828 23184 23232 24438 24439 24440 24441
24448 12 20435 20438 20439 20560 24330 24440 24442 24500 24573 24655 24921 24983
24449 11 20563 20564 20601 23005 24236 24237 24239 24443 24502 24503 24921
24450 6 24213 24696 24699 24701 24755 24757
24451 4 24216 24425 24757 24760
24452 3 24216 24643 24757
24453 8 22660 22714 22861 22862 22903 24568 24704 24763
24454 6 24224 24226 24293 24767 25389 25439
24455 3 24272 24809 25437
24456 8 23905 24301 24667 24712 24775 25280 25486 25804
24457 7 24034 24035 24196 24712 24794 24797 25488
24458 5 23058 24712 24794 24797 24801
24459 2 24248 24669
24460 2 24248 24284
24461 3 22649 24670 24724
24462 12 22651 22838 23036 23038 24250 24544 24604 24672 24674 24725 24776 24810
24463 3 24535 24671 24727
24464 6 23996 24059 24250 24671 24727 24730
24465 7 20376 20377 20406 24674 24732 24733 24734
24466 3 24253 24541 24680
24467 5 22654 24256 24578 24734 24780
24468 7 20395 20408 22678 22924 24253 24256 24752
24469 6 20395 20397 20409 24256 24258 24622
24470 3 24259 24700 24716
24471 8 20371 20397 24621 24645 24646 24702 24757 24783
24472 3 24646 24702 24760
24473 6 20364 20420 24216 24646 24760 24761
24474 4 20364 20469 24217 24646
24475 10 20398 20407 20469 20566 20589 24217 24431 24719 24720 24721
24476 5 22640 22863 22869 24708 24769
24477 6 22683 22869 22909 24267 24708 24771
24478 5 22991 23151 24837 24838 24908
24479 8 22991 23157 24581 24582 24838 24839 24840 24908
24480 2 24628 24917
24481 13 22400 22586 23157 23254 23255 24582 24628 24840 24841 24907 24908 24909 24917
24482 2 24661 24850
24483 4 24847 24917 25324 25697
24484 3 24664 24851 24889
24485 12 22999 24661 24662 24663 24665 24843 24845 24848 24850 25066 25812 25972
24486 4 24851 24891 25814 25974
24487 1 24326
24488 4 24664 24850 24851 25974
24489 5 24654 24862 24917 25815 25978
24490 3 24326 24893 25765
24491 3 24852 24917 25068
24492 1 24852
24493 3 24893 25742 25979
24494 3 24852 25819 25985
24495 5 23922 23974 24853 24894 25742
24496 3 24853 24863 24895
24497 12 24327 24328 24853 24863 24864 24865 24867 24869 24895 24918 25826 25988
24498 5 24328 24869 24870 25828 25988
24499 8 24328 24871 24872 24918 25770 25826 25828 25993
24500 1 24448
24501 5 24330 24655 24656 24905 24921
24502 3 24236 24443 24449
24503 6 24239 24334 24443 24449 24657 24923
24504 6 23005 24237 24334 24416 24657 24925
24505 2 24334 24925
24506 6 22684 22961 22963 23137 23222 24901
24507 6 23886 24647 24648 24820 24821 24878
24508 2 23886 24822
24509 3 23886 24083 24822
24510 6 23174 23888 24087 24649 24823 24880
24511 10 22971 23174 24084 24649 24823 24824 24828 24879 24880 24881
24512 7 23886 24826 24828 24877 24878 24879 24882
24513 4 24788 24826 24856 24882
24514 4 23145 24826 24827 24856
24515 7 24788 24828 24829 24831 24882 24885 24886
24516 11 22973 22979 23156 24650 24788 24825 24827 24832 24883 24886 24991
24517 6 22981 22983 23146 24833 24858 24884
24518 5 22987 24652 24832 24834 24886
24519 4 22987 24653 24834 24887
24520 2 24653 24835
24521 4 22990 23155 24653 24888
24522 3 22605 22997 24888
24523 2 23161 24861
24524 1 24861
24525 5 24584 24842 24844 24846 24861
24526 5 22918 23002 24851 24855 24889
24527 9 24584 24630 24631 24846 24851 24890 24892 25814 25975
24528 9 23891 23931 24243 24244 24444 25349 25372 25379 25380
24529 1 24248
24530 1 24248
24531 2 24198 24248
24532 3 22365 22399 24724
24533 7 23955 24058 24250 24724 24725 24727 24810
24534 5 22624 24673 24726 24734 24776
24535 8 22380 23951 23955 23996 24058 24463 24671 24727
24536 4 20375 24306 24314 24675
24537 5 20376 20405 24674 24730 24732
24538 2 24202 24608
24539 1 24314
24540 4 20391 24431 24687 24698
24541 9 20395 20408 20409 24253 24466 24555 24644 24680 24781
24542 16 20455 20500 20524 20526 22634 22750 24261 24262 24289 24575 24576 24596 24597 24598 24973 24979
24543 2 24198 24249
24544 4 24462 24672 24674 24728
24545 1 24734
24546 2 24674 24734
24547 3 24607 24610 24735
24548 3 24307 24309 24735
24549 10 22625 22628 22884 22885 24205 24606 24611 24679 24729 24781
24550 4 24310 24431 24639 24737
24551 1 24314
24552 2 24211 24781
24553 4 22924 24256 24429 24688
24554 7 24689 24690 24691 24754 24755 24781 24808
24555 2 24541 24781
24556 3 24694 24755 24781
24557 2 24260 24784
24558 2 22727 22761
24559 2 24622 24698
24560 4 24213 24696 24757 24783
24561 10 22647 22655 22679 22727 22728 22741 22761 22890 22891 24341
24562 2 22634 22750
24563 4 22680 24214 24261 24289
24564 5 24260 24289 24430 24595 24718
24565 3 22680 24214 24289
24566 2 24576 24979
24567 7 22713 24222 24263 24704 24763 25021 25058
24568 8 22663 22666 22715 22862 22903 22905 22938 24453
24569 4 22671 22719 22754 24363
24570 4 22671 22765 22926 24774
24571 2 24351 24874
24572 1 24330
24573 2 24330 24448
24574 8 22390 23211 24079 24124 28624 28651 28655 28657
24575 3 24289 24542 24973
24576 4 24542 24566 24596 24979
24577 2 23995 24724
24578 16 22621 22622 22623 22624 22654 22676 22885 23041 24201 24202 24467 24608 24680 24734 24738 24781
24579 3 23024 24254 24780
24580 2 24256 24753
24581 3 24479 24838 24908
24582 4 24479 24481 24840 24908
24583 1 23000
24584 6 23000 24525 24527 24846 24851 24861
24585 8 22502 24324 24412 24413 24903 24913 24915 24916
24586 1 24446
24587 1 24446
24588 1 24446
24589 3 22738 23231 24446
24590 2 24098 24441
24591 1 24330
24592 1 24114
24593 2 24240 24331
24594 4 24427 24672 24674 24728
24595 3 24260 24430 24564
24596 2 24542 24576
24597 2 24542 24979
24598 2 24542 24979
24599 4 22682 24218 24220 24290
24600 4 22742 24342 24875 24980
24601 2 24431 24719
24602 1 24284
24603 1 24284
24604 3 24462 24725 24810
24605 2 22844 24208
24606 2 22628 24549
24607 2 24547 24735
24608 5 22624 24202 24538 24578 24734
24609 1 24208
24610 2 24547 24735
24611 3 22628 22884 24549
24612 2 22653 24678
24613 2 22845 24779
24614 2 22845 24686
24615 1 24208
24616 3 22628 24211 24741
24617 4 22633 24209 24286 24684
24618 3 22628 24211 24781
24619 2 22628 24781
24620 2 22682 24218
24621 3 24471 24646 24702
24622 8 20397 24256 24258 24311 24431 24469 24559 24698
24623 1 24820
24624 5 22580 22981 23174 23175 24828
24625 4 24789 24831 24857 24886
24626 2 23161 24861
24627 3 23919 24909 24910
24628 8 23919 24102 24480 24481 24909 24910 24912 24917
24629 2 24847 24917
24630 2 24527 24851
24631 3 24527 24846 24890
24632 3 24326 24849 25697
24633 4 22445 23256 24325 24790
24634 6 24090 24091 24104 24326 24849 25742
24635 5 22335 22445 23257 23258 24790
24636 2 24307 24777
24637 2 23970 24431
24638 1 24307
24639 4 24310 24550 24737 24782
24640 1 24782
24641 1 24314
24642 3 24425 24702 24760
24643 5 24215 24216 24452 24757 24761
24644 3 20408 24253 24541
24645 6 20397 20409 24471 24696 24755 24783
24646 11 20364 20397 24217 24312 24471 24472 24473 24474 24621 24702 24760
24647 6 22969 23249 24507 24820 24878 24901
24648 3 24507 24821 24878
24649 4 24510 24511 24823 24880
24650 3 24516 24825 24991
24651 2 24829 24885
24652 4 22987 23156 24518 24832
24653 11 22601 22987 22990 23155 24519 24520 24521 24834 24835 24836 24887
24654 2 24489 24917
24655 4 24330 24448 24501 24921
24656 2 24330 24501
24657 5 23005 24239 24334 24503 24504
24658 2 24242 24417
24659 3 24242 24417 24924
24660 7 22587 22997 23000 23161 23162 24851 24855
24661 9 22997 23159 23160 23162 23703 24482 24485 24843 24850
24662 2 24485 24850
24663 3 24485 24850 25812
24664 5 24484 24488 24850 24851 24889
24665 4 24485 24848 25066 25972
24666 1 24759
24667 8 22830 22874 24160 24300 24301 24456 24775 25804
24668 6 22615 22694 22832 24301 24302 24801
24669 8 20381 20425 23027 24197 24248 24459 24722 24723
24670 6 22649 22879 22921 23016 24461 24724
24671 5 23996 24463 24464 24535 24727
24672 6 24427 24462 24544 24594 24728 24776
24673 4 24427 24534 24734 24776
24674 13 23038 24250 24427 24462 24465 24537 24544 24546 24594 24728 24730 24732 24734
24675 4 20375 24306 24536 24735
24676 3 22850 22888 24314
24677 2 24202 24734
24678 7 20352 20359 22653 22845 22850 24612 24731
24679 3 22628 24205 24549
24680 6 24253 24466 24541 24578 24738 24781
24681 8 20376 20377 20406 20415 20424 24059 24431 24730
24682 2 22850 24288
24683 3 24747 24779 25516
24684 4 24209 24286 24314 24617
24685 4 24715 24747 24779 25219
24686 8 22845 24207 24210 24288 24614 24742 24745 25672
24687 2 24431 24540
24688 6 22924 23024 24256 24429 24553 24780
24689 2 24554 24808
24690 2 24554 24808
24691 2 24554 24808
24692 4 24288 24749 24759 25672
24693 2 24286 24314
24694 2 24556 24755
24695 2 24260 24755
24696 6 24213 24450 24560 24645 24755 24783
24697 2 24288 24759
24698 9 20377 20391 24256 24311 24431 24540 24559 24622 24753
24699 3 24213 24450 24757
24700 2 24259 24470
24701 5 24260 24450 24755 24757 24784
24702 8 24425 24471 24472 24621 24642 24646 24757 24760
24703 4 24218 24288 24759 25672
24704 6 22714 22859 24263 24453 24567 24763
24705 5 20442 20507 20509 20531 24264
24706 2 24224 24764
24707 7 24223 24265 24292 24766 25388 25463 25677
24708 8 22869 22870 24267 24269 24476 24477 24769 24771
24709 2 22907 24269
24710 5 24271 24273 24772 25431 25681
24711 6 22672 22766 22927 24350 24952 25027
24712 9 23905 24196 24301 24303 24456 24457 24458 24794 24801
24713 5 24204 24208 24251 24308 24800
24714 5 24208 24251 25650 25651 25685
24715 4 24208 24685 24779 25219
24716 5 20521 21328 24259 24470 25936
24717 6 20575 21251 21329 24785 24985 25936
24718 3 24289 24430 24564
24719 3 24431 24475 24601
24720 2 24431 24475
24721 4 24217 24431 24475 24762
24722 3 20425 23027 24669
24723 6 22648 22697 22700 24197 24248 24669
24724 15 22365 22399 22649 22650 22835 23016 23023 23955 23995 24461 24532 24533 24577 24670 24810
24725 5 24250 24462 24533 24604 24810
24726 4 22624 22651 24534 24776
24727 7 24058 24250 24463 24464 24533 24535 24671
24728 4 24544 24594 24672 24674
24729 4 22628 22676 22885 24549
24730 9 20405 20415 20424 24059 24250 24464 24537 24674 24681
24731 5 20359 20372 22850 24314 24678
24732 4 20376 24465 24537 24674
24733 2 20376 24465
24734 15 20377 22624 24202 24256 24427 24465 24467 24534 24545 24546 24578 24608 24673 24674 24677
24735 15 20354 20361 20375 20387 20404 24198 24249 24306 24307 24309 24547 24548 24607 24610 24675
24736 3 24251 24308 24796
24737 3 24310 24550 24639
24738 6 22654 22847 24201 24253 24578 24680
24739 2 22628 24211
24740 4 22627 22628 24206 24211
24741 3 22628 24211 24616
24742 2 24207 24686
24743 3 24209 24252 24314
24744 3 24257 25220 25686
24745 2 24210 24686
24746 4 22633 24209 24212 24314
24747 6 24683 24685 24779 25219 25516 25670
24748 2 22627 24211
24749 4 24210 24288 24692 25672
24750 1 24314
24751 2 24211 24285
24752 2 20395 24468
24753 3 24256 24580 24698
24754 7 22631 22889 24255 24260 24285 24554 24808
24755 11 24260 24450 24554 24556 24645 24694 24695 24696 24701 24781 24808
24756 3 22682 24212 24288
24757 16 24213 24215 24216 24260 24425 24430 24450 24451 24452 24471 24560 24643 24699 24701 24702 24783
24758 2 24259 24314
24759 7 24288 24666 24692 24697 24703 25647 25672
24760 8 24216 24425 24451 24472 24473 24642 24646 24702
24761 8 20420 20426 20427 24215 24216 24430 24473 24643
24762 5 20397 24217 24312 24431 24721
24763 9 22862 22900 23046 24320 24453 24567 24704 24948 25058
24764 3 24224 24293 24706
24765 1 24224
24766 7 24223 24224 24293 24707 25388 25534 25676
24767 3 24224 24293 24454
24768 2 24224 25439
24769 5 22863 24269 24291 24476 24708
24770 1 24293
24771 7 22668 22870 22909 22910 23047 24477 24708
24772 7 24271 24272 24274 24315 24710 25680 25681
24773 6 20552 20605 21080 24233 25261 25285
24774 7 22671 22746 22765 24349 24364 24570 24981
24775 3 24301 24456 24667
24776 7 22651 24427 24462 24534 24672 24673 24726
24777 3 20361 24307 24636
24778 3 22846 22888 24314
24779 7 22845 24208 24613 24683 24685 24715 24747
24780 7 22654 23024 24254 24256 24467 24579 24688
24781 17 20409 22625 22628 22885 24205 24211 24541 24549 24552 24554 24555 24556 24578 24618 24619 24680 24755
24782 8 23954 23957 23971 24310 24445 24639 24640 26030
24783 5 24471 24560 24645 24696 24757
24784 3 24260 24557 24701
24785 8 20399 20456 20492 20496 24314 24717 24985 25936
24786 2 24264 24314
24787 2 24264 24314
24788 7 24513 24515 24516 24827 24856 24882 24886
24789 2 24625 24886
24790 10 22445 22824 22825 22826 23257 23258 24325 24413 24633 24635
24791 1 24439
24792 1 24440
24793 2 23890 24243
24794 4 24457 24458 24712 24797
24795 8 22617 22619 22840 23071 23077 24248 24284 24798
24796 6 24251 24308 24736 25512 25649 25685
24797 6 23058 24035 24304 24457 24458 24794
24798 4 22700 23071 24248 24795
24799 2 25513 25686
24800 6 22844 23078 24204 24208 24308 24713
24801 8 22615 23058 23075 24301 24302 24458 24668 24712
24802 5 23080 24066 24078 24376 24805
24803 4 24377 24380 24816 28543
24804 5 22368 23368 24379 24898 24939
24805 10 23079 23293 23369 24066 24376 24385 24802 24927 24938 24940
24806 1 24134
24807 6 22371 22372 22373 22386 23128 24134
24808 7 24260 24554 24689 24690 24691 24754 24755
24809 5 24228 24272 24293 24455 25437
24810 8 22922 23016 23036 24462 24533 24604 24724 24725
24811 4 24817 24876 24932 24933
24812 6 22369 23109 23111 23371 24934 24942
24813 2 24375 24387
24814 11 22783 22785 22789 22812 22813 23008 23200 23310 23388 24900 24936
24815 2 24380 28537
24816 4 24380 24803 28537 28543
24817 5 23099 23362 24811 24932 24933
24818 4 23106 23297 23371 24942
24819 4 23189 24382 24935 24941
24820 7 22331 23222 23886 24507 24623 24647 24901
24821 3 24507 24648 24878
24822 4 23886 24508 24509 24877
24823 5 23888 24084 24510 24511 24649
24824 2 24511 24879
24825 6 22972 22973 23226 24516 24650 24991
24826 8 23145 23225 24512 24513 24514 24856 24878 24882
24827 6 22973 23145 24514 24516 24788 24856
24828 11 22981 23146 23174 24511 24512 24515 24624 24879 24881 24882 24885
24829 3 24515 24651 24885
24830 2 24858 24885
24831 6 22986 23149 24515 24625 24885 24886
24832 6 22987 23156 24516 24518 24652 24886
24833 4 22983 23150 24517 24884
24834 7 22986 22987 24518 24519 24653 24886 24887
24835 4 23155 24520 24653 24887
24836 2 22987 24653
24837 2 22991 24478
24838 5 22991 24478 24479 24581 24908
24839 2 23157 24479
24840 4 23157 24479 24481 24582
24841 2 24481 24908
24842 1 24525
24843 4 22999 23703 24485 24661
24844 2 24525 24861
24845 6 22999 24485 24911 24998 25032 25066
24846 5 24525 24527 24584 24631 24890
24847 6 24102 24483 24629 24902 24917 25697
24848 3 24485 24665 25066
24849 8 24090 24102 24326 24410 24632 24634 24914 25697
24850 13 23001 23162 24482 24485 24488 24661 24662 24663 24664 24855 24889 25812 25974
24851 19 22587 22918 23000 23002 24484 24486 24488 24526 24527 24584 24630 24660 24664 24855 24889 24891 24892 25814 25974
24852 9 24491 24492 24494 24917 25003 25068 25819 25826 25985
24853 11 23922 24108 24495 24496 24497 24863 24865 24894 24895 25826 25984
24854 3 25731 25743 25821
24855 9 22918 23001 23002 23162 24526 24660 24850 24851 24889
24856 6 24513 24514 24788 24826 24827 24882
24857 2 24625 24886
24858 5 22983 23146 24517 24830 24885
24859 5 22443 22604 22606 22995 23253
24860 2 22994 22995
24861 9 22996 23000 23161 24523 24524 24525 24584 24626 24844
24862 2 24489 24917
24863 5 24496 24497 24853 24895 25826
24864 2 24328 24497
24865 5 24093 24108 24327 24497 24853
24866 1 24328
24867 4 24327 24497 25326 25988
24868 1 24440
24869 4 24328 24497 24498 25988
24870 3 24328 24498 25828
24871 3 24328 24499 25828
24872 2 24499 25828
24873 4 22644 24270 24275 24315
24874 4 24321 24351 24365 24571
24875 3 22742 24600 24980
24876 4 24373 24811 24929 24933
24877 3 23886 24512 24822
24878 10 22969 23225 23249 23886 24507 24512 24647 24648 24821 24826
24879 4 24511 24512 24824 24828
24880 6 22971 23174 24087 24510 24511 24649
24881 3 23174 24511 24828
24882 7 24512 24513 24515 24788 24826 24828 24856
24883 3 22979 24516 24991
24884 4 22981 23150 24517 24833
24885 11 22983 22986 23146 23179 24515 24651 24828 24829 24830 24831 24858
24886 11 22986 24515 24516 24518 24625 24788 24789 24831 24832 24834 24857
24887 6 22986 23155 24519 24653 24834 24835
24888 8 22603 22605 22990 22997 23155 23156 24521 24522
24889 6 24484 24526 24664 24850 24851 24855
24890 3 24527 24631 24846
24891 3 24486 24851 25814
24892 2 24527 24851
24893 6 24326 24490 24493 25742 25765 25979
24894 4 24495 24853 25742 25984
24895 4 24496 24497 24853 24863
24896 3 24926 28541 28551
24897 1 24377
24898 3 24379 24804 24940
24899 4 23369 23998 24385 24943
24900 4 23310 24375 24814 24936
24901 8 22590 22963 23222 23223 23249 24506 24647 24820
24902 5 24102 24410 24847 24914 25697
24903 7 22510 23920 24103 24324 24411 24413 24585
24904 8 20436 20440 20555 23231 24112 24437 24446 24920
24905 4 24237 24330 24501 24921
24906 7 22972 23226 23250 23465 24976 24991 25028
24907 3 22586 23254 24481
24908 10 22993 23151 23255 24478 24479 24481 24581 24582 24838 24841
24909 5 22400 23919 24481 24627 24628
24910 3 23919 24627 24628
24911 7 22999 23633 24845 24994 24995 25032 25062
24912 2 24102 24628
24913 5 22490 22502 22823 24324 24585
24914 4 24410 24849 24902 25697
24915 3 24324 24412 24585
24916 5 22502 23256 24325 24413 24585
24917 30 22998 23227 23228 23255 24102 24480 24481 24483 24489 24491 24628 24629 24654 24847 24852 24862 24999 25000 25001 25002 25034 25035 25068 25324 25765 25815 25826 25978 25979 26037
24918 5 24328 24497 24499 25770 25826
24919 4 24096 24329 24414 25328
24920 4 20440 24112 24329 24904
24921 8 20560 20564 24237 24448 24449 24501 24655 24905
24922 5 24242 24332 24390 24397 24417
24923 4 24334 24443 24503 25337
24924 9 24242 24243 24332 24335 24398 24417 24659 25349 25774
24925 11 24099 24237 24330 24334 24415 24416 24504 24505 25336 25337 25773
24926 3 24376 24896 28541
24927 2 24805 24940
24928 4 23102 23368 24379 24940
24929 4 21976 23097 24373 24876
24930 3 23100 23291 23359
24931 2 23297 24942
24932 5 23099 24374 24381 24811 24817
24933 5 23362 24373 24811 24817 24876
24934 2 22369 24812
24935 5 22369 23189 23193 23240 24819
24936 7 23120 23200 23391 24375 24814 24900 24944
24937 2 23896 28655
24938 3 23293 23369 24805
24939 3 22368 24383 24804
24940 8 22803 23102 23293 24379 24805 24898 24927 24928
24941 5 22808 23104 23189 24382 24819
24942 5 23297 23371 24812 24818 24931
24943 5 22804 23369 23998 24384 24899
24944 4 23391 24375 24387 24936
24945 3 23585 25017 25040
24946 6 22647 22894 24956 24979 25019 25056
24947 6 23447 24960 25024 25025 25038 25043
24948 9 22681 22900 23448 24763 24957 24958 25037 25058 25940
24949 4 25021 25026 25038 25058
24950 13 20445 20447 20508 20509 20535 20546 20614 20615 22641 22644 24227 24315 24316
24951 5 22233 22707 23586 24953 25041
24952 5 22671 22672 22912 24711 25027
24953 7 23419 23462 23586 24951 24989 25041 25044
24954 4 23582 23585 25040 25940
24955 6 22709 23447 23582 25023 25042 25940
24956 3 24946 24979 25019
24957 6 23448 24948 24974 24980 25939 25940
24958 3 24948 25058 25940
24959 1 25038
24960 10 23447 24947 25023 25024 25025 25026 25038 25043 25058 25940
24961 4 23587 24219 25038 25042
24962 4 20461 24966 24968 24979
24963 10 20461 20462 20482 20586 25020 25039 25879 25944 25945 26031
24964 4 20464 24975 25880 25948
24965 9 22671 24276 24349 24364 24971 24972 24981 24982 25027
24966 3 20461 24962 24979
24967 1 24978
24968 7 20461 20586 24962 24978 24979 25945 25946
24969 5 20464 20510 20518 24975 24980
24970 4 20448 20548 21276 24980
24971 6 24276 24348 24965 24977 24982 25055
24972 4 24350 24965 24982 25027
24973 4 24261 24289 24542 24575
24974 4 22662 23448 24957 24980
24975 9 20464 24964 24969 24980 25948 25949 25951 25954 25955
24976 11 23465 23467 23469 23627 23628 23641 23711 24906 24990 24991 25028
24977 12 21080 21242 24348 24351 24363 24971 24982 25055 25360 25843 25931 25932
24978 2 24967 24968
24979 27 20455 20461 20502 20504 20526 22647 22728 22741 22750 24341 24542 24566 24576 24597 24598 24946 24956 24962 24966 24968 25054 25057 25941 25943 25946 25952 25953
24980 31 20448 20493 20510 20520 21276 22662 22742 22743 22762 24269 24291 24342 24343 24344 24362 24600 24875 24957 24969 24970 24974 24975 24986 25059 25930 25938 25939 25942 25947 25950 25955
24981 4 24349 24364 24774 24965
24982 8 24350 24351 24357 24965 24971 24972 24977 25055
24983 3 20435 24448 27955
24984 9 20440 20557 20561 20562 20565 20599 20600 20602 24443
24985 5 20456 20492 20575 24717 24785
24986 1 24980
24987 4 24142 24168 25088 25090
24988 6 23623 23832 23833 25017 25044 25071
24989 12 23442 23457 23458 23460 23462 23618 23619 23802 23832 24953 25044 25070
24990 7 23465 23625 23627 23639 23699 23707 24976
24991 9 22972 22979 23628 24516 24650 24825 24883 24906 24976
24992 3 23701 25029 25062
24993 3 25029 25062 26037
24994 4 23633 23702 24911 25062
24995 4 24911 25032 25062 26037
24996 2 25032 26037
24997 3 25032 25066 26037
24998 2 24845 25066
24999 14 22998 23182 24917 25029 25030 25031 25033 25034 25060 25061 25063 25064 25065 26037
25000 2 24917 25034
25001 5 24917 25034 25035 25065 26037
25002 5 24917 25066 25068 25812 26037
25003 9 24852 25067 25068 25813 25817 25819 25976 25980 25981
25004 2 24164 25088
25005 5 22450 25082 25084 25085 25087
25006 4 22451 22539 25085 25088
25007 4 22452 23327 24163 24170
25008 1 25088
25009 2 24170 25089
25010 1 23838
25011 6 23607 23820 23836 23837 25073 25091
25012 9 23635 23637 23825 23827 25046 25047 25048 25049 25074
25013 5 23284 23350 23634 25050 25075
25014 2 23350 25094
25015 3 25095 25096 25937
25016 3 22647 25097 25937
25017 23 22706 23437 23439 23585 23635 23636 23830 24945 24988 25022 25036 25040 25044 25053 25071 25074 25076 25077 25079 25080 25081 25086 25940
25018 3 22647 25097 25098
25019 6 22647 22894 24946 24956 25072 25098
25020 1 24963
25021 7 22659 22713 24222 24567 24949 25038 25058
25022 6 22233 22656 22706 22707 25017 25044
25023 4 23447 24955 24960 25940
25024 3 23447 24947 24960
25025 2 24947 24960
25026 4 24949 24960 25038 25058
25027 6 22671 24350 24711 24952 24965 24972
25028 2 24906 24976
25029 7 23701 24992 24993 24999 25060 25062 26037
25030 2 22998 24999
25031 1 24999
25032 7 24845 24911 24995 24996 24997 25066 26037
25033 3 24999 25065 26037
25034 5 24917 24999 25000 25001 25065
25035 3 24917 25001 26037
25036 2 22706 25017
25037 2 22681 24948
25038 11 22659 23447 24219 24947 24949 24959 24960 24961 25021 25026 25042
25039 2 20461 24963
25040 5 23585 24945 24954 25017 25940
25041 4 22233 24951 24953 25044
25042 7 22065 22709 23447 23587 24955 24961 25038
25043 2 24947 24960
25044 7 22233 24953 24988 24989 25017 25022 25041
25045 1 25092
25046 2 25012 25091
25047 1 25012
25048 1 25012
25049 1 25012
25050 2 25013 25075
25051 1 25078
25052 1 25078
25053 1 25017
25054 1 24979
25055 3 24971 24977 24982
25056 2 22647 24946
25057 1 24979
25058 9 24567 24763 24948 24949 24958 24960 25021 25026 25940
25059 1 24980
25060 6 22585 23182 23631 23701 24999 25029
25061 3 22998 23182 24999
25062 9 23633 23701 24911 24992 24993 24994 24995 25029 26037
25063 1 24999
25064 2 24999 26037
25065 5 24999 25001 25033 25034 26037
25066 11 24485 24665 24845 24848 24997 24998 25002 25032 25812 25972 26037
25067 4 25003 25813 25973 25976
25068 8 24491 24852 24917 25002 25003 25812 25813 26018
25069 3 22473 22550 23025
25070 4 23460 23618 23834 24989
25071 3 23623 24988 25017
25072 1 25019
25073 1 25011
25074 4 23635 23827 25012 25017
25075 3 23350 25013 25050
25076 3 23437 23635 25017
25077 1 25017
25078 5 23350 25051 25052 25093 25094
25079 1 25017
25080 1 25017
25081 2 23636 25017
25082 2 22450 25005
25083 1 24163
25084 3 22450 24001 25005
25085 4 22450 22539 25005 25006
25086 5 23437 23439 23635 23805 25017
25087 1 25005
25088 11 22451 22944 23408 24003 24140 24142 24164 24987 25004 25006 25008
25089 2 24170 25009
25090 2 24168 24987
25091 2 25011 25046
25092 1 25045
25093 2 23350 25078
25094 3 23350 25014 25078
25095 1 25015
25096 3 22647 23350 25015
25097 3 22647 25016 25018
25098 3 22647 25018 25019
25099 3 23894 24393 25114
25100 3 23918 23936 25411
25101 4 23934 23936 25116 25415
25102 4 23935 25116 25217 25414
25103 4 23861 25118 25368 25410
25104 4 23918 23936 25117 25369
25105 2 25198 27959
25106 5 25120 25169 25171 25200 25714
25107 3 25120 25171 25201
25108 10 25120 25126 25158 25159 25161 25171 25173 25174 25175 25209
25109 5 23931 25122 25123 25337 25605
25110 4 25123 25181 25183 25187
25111 4 25123 25185 25187 25189
25112 5 25123 25135 25148 25190 25193
25113 5 25123 25136 25150 25191 25192
25114 2 24393 25099
25115 12 21106 21376 21388 22690 23858 23862 23892 23893 23910 24393 25894 25907
25116 7 23933 23934 23935 23936 23937 25101 25102
25117 2 23936 25104
25118 2 23861 25103
25119 5 23861 23895 23909 25410 26001
25120 15 23928 25106 25107 25108 25126 25171 25174 25201 25329 25332 25595 25604 25714 25733 28212
25121 8 25125 25208 25336 25721 25762 25764 25775 28214
25122 9 23930 23931 23980 24116 25109 25337 25605 25606 25777
25123 33 23931 23981 23982 23983 24100 24117 25109 25110 25111 25112 25113 25127 25128 25133 25134 25148 25163 25164 25178 25179 25181 25182 25183 25184 25185 25187 25188 25189 25190 25191 25210 25337 25722
25124 4 20963 25203 25209 25499
25125 4 25121 25206 25208 25764
25126 9 25108 25120 25137 25161 25205 25209 25763 27974 28212
25127 1 25123
25128 9 25123 25139 25140 25141 25142 25163 25180 25207 27973
25129 1 25145
25130 2 25144 25209
25131 6 20870 20934 20966 25162 25204 25209
25132 3 25147 25211 27976
25133 1 25123
25134 1 25123
25135 4 25112 25148 25149 27977
25136 2 25113 25150
25137 1 25126
25138 1 27974
25139 2 25128 27973
25140 2 25128 27973
25141 2 25128 27973
25142 4 25128 25163 27973 27976
25143 2 25163 27976
25144 3 25130 25209 27974
25145 2 25129 27976
25146 2 25163 27976
25147 3 25132 27975 27976
25148 7 25112 25123 25135 25210 27968 27976 27977
25149 5 25135 27969 27977 27978 27979
25150 4 25113 25136 27980 27981
25151 1 25198
25152 10 23843 23844 23851 25165 25166 25167 25194 25195 25198 25461
25153 4 23846 23854 25197 25199
25154 2 23846 25199
25155 3 23845 23846 23856
25156 1 23847
25157 1 25499
25158 11 25108 25170 25171 25172 25200 25202 25209 25498 25499 25714 25756
25159 3 25108 25173 25209
25160 1 25209
25161 5 25108 25126 25173 25175 25209
25162 2 25131 25209
25163 7 25123 25128 25142 25143 25146 25188 27976
25164 2 25123 25186
25165 1 25152
25166 2 25152 25194
25167 3 23843 23851 25152
25168 1 23847
25169 2 25106 25200
25170 1 25158
25171 8 25106 25107 25108 25120 25158 25200 25201 25202
25172 2 25158 25202
25173 4 25108 25159 25161 25209
25174 2 25108 25120
25175 2 25108 25161
25176 1 25763
25177 1 25764
25178 1 25123
25179 1 25123
25180 1 25128
25181 2 25110 25123
25182 1 25123
25183 2 25110 25123
25184 1 25123
25185 2 25111 25123
25186 1 25164
25187 3 25110 25111 25123
25188 4 25123 25163 25210 27976
25189 2 25111 25123
25190 2 25112 25123
25191 2 25113 25123
25192 1 25113
25193 1 25112
25194 2 25152 25166
25195 1 25152
25196 2 27961 27972
25197 3 25153 27961 27972
25198 5 25105 25151 25152 27959 27971
25199 3 23846 25153 25154
25200 5 25106 25158 25169 25171 25714
25201 3 25107 25120 25171
25202 3 25158 25171 25172
25203 1 25124
25204 2 20966 25131
25205 1 25126
25206 1 25125
25207 1 25128
25208 3 25121 25125 25764
25209 15 20963 25108 25124 25126 25130 25131 25144 25158 25159 25160 25161 25162 25173 25499 27974
25210 4 25123 25148 25188 27976
25211 5 20873 20935 25132 27968 27976
25212 12 21087 21093 21148 21154 21155 21166 21168 23863 23911 25262 25286 26609
25213 4 25263 25312 25377 26316
25214 11 20693 20878 25377 25546 26147 26149 26262 26449 26806 26807 26823
25215 7 20889 21237 25291 25377 26178 26332 26539
25216 5 24190 24280 24317 24405 25343
25217 8 23935 24355 25102 25231 25371 25414 25922 25970
25218 10 20656 20694 24203 25514 25690 28014 28015 28016 28017 28019
25219 8 24208 24257 24685 24715 24747 25651 25654 25670
25220 8 24257 24744 25247 25515 25653 25655 25686 28020
25221 1 25672
25222 3 25519 25654 25671
25223 13 20621 20632 20670 24257 24287 25527 25531 25655 25656 25657 25671 28031 28037
25224 12 25249 25250 25450 25507 25530 25532 25538 25673 25674 25687 28032 28193
25225 4 20801 25450 28036 28193
25226 1 25249
25227 4 24220 24293 25249 25534
25228 7 20394 24231 24232 25436 25455 25958 26035
25229 8 20394 24232 24277 24294 25285 25436 25586 25613
25230 10 24294 24295 25244 25260 25290 25320 25321 25325 25542 25665
25231 3 25217 25371 25970
25232 3 23896 24151 25809
25233 3 23869 25474 25639
25234 1 25641
25235 3 23870 24017 25641
25236 3 23874 24026 25640
25237 11 23871 23873 23897 23898 24014 24019 24024 24184 25475 25791 25809
25238 2 23878 25793
25239 6 23873 25281 25475 25478 25795 25796
25240 3 23874 24032 25792
25241 3 25275 25786 27952
25242 1 24032
25243 3 23878 24027 24032
25244 4 25230 25321 25325 25587
25245 2 25325 25695
25246 5 24240 24243 24333 25331 25337
25247 8 20629 21006 25220 25517 25652 25653 25655 28028
25248 1 25666
25249 13 24220 24290 25224 25226 25227 25507 25508 25529 25535 25666 25672 25687 28170
25250 10 20671 20672 20744 20747 20972 25224 25507 25538 25666 25675
25251 6 20672 20743 20745 25666 26079 28170
25252 3 24268 25451 25607
25253 20 20751 20973 25430 25432 25438 25441 25464 25534 25536 25608 25658 25659 25660 25667 25676 25688 25689 28049 28050 28171
25254 5 25432 25438 25464 25668 28050
25255 6 25373 25539 25661 25663 25680 25681
25256 6 25284 25288 25433 25443 25452 25612
25257 4 20676 21044 25445 25454
25258 5 20683 21044 25284 25443 25540
25259 2 25436 25586
25260 8 24277 24294 25230 25289 25290 25396 25586 25665
25261 8 21080 24233 24294 24773 25360 25541 25542 25932
25262 15 21088 21091 21092 21107 21120 21147 21166 21387 21394 23860 23911 24392 25212 25900 25918
25263 4 25213 25312 25377 26321
25264 4 25377 26324 26447 26481
25265 5 24297 24336 25291 25377 25378
25266 13 21066 24245 24246 24340 25318 25356 25556 25560 25837 25838 25839 25848 25997
25267 13 24246 24247 24298 25356 25562 25839 25854 25857 25862 25866 26518 26554 26555
25268 10 24190 24280 24354 24358 25343 25344 25901 25926 25959 26004
25269 7 24283 24355 24406 24407 25345 25841 25842
25270 2 24355 25842
25271 5 24355 25370 25842 25960 28683
25272 8 23864 24001 24065 24078 24385 25470 25622 25724
25273 12 23867 24001 24004 24006 24141 25470 25623 25625 25628 25630 25633 25636
25274 14 23866 23985 24002 24007 25471 25624 25626 25627 25629 25631 25632 25634 25635 25637
25275 4 25241 25465 25785 25786
25276 9 23898 23900 24073 24155 25475 25476 25780 28636 28680
25277 1 28636
25278 5 25476 25643 25644 25645 28636
25279 3 25476 25646 28636
25280 2 24456 25804
25281 14 23873 23877 24022 24024 25239 25478 25479 25481 25483 25484 25796 25797 25799 25801
25282 6 23907 24035 25486 25488 25509 25684
25283 5 24275 24315 24316 25453 25681
25284 5 20683 25256 25258 25288 25443
25285 6 20394 21080 24233 24294 24773 25229
25286 6 21106 21148 23862 23863 23911 25212
25287 6 25430 25432 25435 25539 25664 25683
25288 12 20683 20765 20788 20839 20978 25256 25284 25432 25452 25611 25669 26132
25289 3 25260 25396 25586
25290 11 20652 20681 21036 24295 25230 25260 25320 25396 25544 26124 26309
25291 6 21237 21255 25215 25265 25377 25378
25292 5 20433 21486 24299 24391 25919
25293 1 28672
25294 2 25302 28672
25295 2 25302 28672
25296 2 25302 28672
25297 3 25310 25428 28674
25298 1 25349
25299 5 24319 25316 25317 25355 25576
25300 3 25318 25343 25840
25301 5 25421 28669 28671 28672 28677
25302 4 25294 25295 25296 28672
25303 4 23884 25340 28645 28672
25304 3 25340 25407 25420
25305 1 28674
25306 2 26105 28674
25307 2 25428 28674
25308 2 25428 28674
25309 7 20724 20726 25426 26060 26106 26108 28674
25310 7 20730 25297 25428 25429 26062 26110 28674
25311 9 20884 20886 21037 25377 26067 26273 26310 26440 26441
25312 9 25213 25263 26316 26318 26321 26442 26444 26484 26485
25313 2 25349 25381
25314 3 25350 25382 25383
25315 2 25575 26173
25316 7 24123 24319 24367 25299 25551 25575 25576
25317 2 24319 25299
25318 8 24245 25266 25300 25343 25559 25561 25840 25997
25319 3 25340 25420 28672
25320 4 25230 25290 25325 26309
25321 6 24322 25230 25244 25325 25359 25542
25322 3 25339 28665 28676
25323 2 23917 28642
25324 7 24326 24483 24917 25696 25697 25701 25765
25325 46 20816 20823 23920 23921 23973 24103 24105 24322 25230 25244 25245 25320 25321 25587 25588 25589 25590 25591 25691 25692 25693 25694 25695 25698 25699 25700 25702 25728 25729 25730 25737 25738 25739 25740 25741 25766 25767 26066 26268 26273 26309 26354 26369 26370 26371 28217
25326 7 24108 24327 24867 25594 25772 25828 25988
25327 4 24110 24113 25771 25772
25328 4 24096 24414 24919 25377
25329 9 23928 23977 24097 25120 25495 25595 25733 25752 25772
25330 4 24330 25505 25597 25775
25331 7 24240 24241 24243 24331 24335 24398 25246
25332 8 23927 23928 23978 24114 25120 25598 25604 25716
25333 2 25759 25775
25334 3 25505 25603 25715
25335 3 25759 25775 28215
25336 11 23979 24099 24925 25121 25717 25719 25721 25734 25773 25775 25776
25337 23 23890 23929 23930 23980 23981 24243 24333 24334 24443 24444 24923 24925 25109 25122 25123 25246 25606 25717 25718 25720 25722 25773 25777
25338 6 20805 20806 20944 25397 28663 28664
25339 3 25322 25398 28676
25340 10 25303 25304 25319 25361 25407 25408 25409 25420 28642 28645
25341 3 20808 25423 28667
25342 1 25425
25343 16 20431 20619 24245 24246 24280 24340 24403 24404 24405 25216 25268 25300 25318 25561 25840 25959
25344 7 24282 24354 24358 25268 25902 25903 25926
25345 5 24192 24283 25269 25841 25904
25346 1 25549
25347 1 25549
25348 2 25383 25549
25349 44 20844 20891 20898 20908 21241 21255 24243 24337 24399 24417 24528 24924 25298 25313 25372 25378 25379 25380 25383 25547 25548 25549 25723 25761 25774 26150 26151 26153 26154 26155 26159 26179 26181 26455 26456 26457 26459 26494 26498 26501 26754 26755 26826 26827
25350 7 20880 20899 20901 25314 25382 25383 25582
25351 1 26470
25352 23 20797 20798 20912 20915 21003 21004 21180 24120 24337 24400 25382 25384 25543 25575 26095 26164 26344 26380 26468 26470 26490 26491 26818
25353 2 24119 25575
25354 6 20903 25543 25575 26173 26183 26492
25355 30 22354 24319 24338 24339 24368 24369 24435 25299 25386 25552 25553 25554 25555 25558 25576 25577 25578 25831 25846 25851 25882 25883 26506 26544 26545 26548 26551 26778 26779 26794
25356 5 24246 25266 25267 25557 25839
25357 8 24247 24360 25562 25868 25884 25885 26557 26558
25358 4 24424 25564 25887 26531
25359 2 25321 25542
25360 10 24321 24322 24351 24365 24366 24977 25261 25541 25542 25932
25361 2 23917 25340
25362 5 25410 25413 26000 26001 26002
25363 2 25410 25412
25364 3 25369 25411 25416
25365 1 25415
25366 1 28563
25367 5 25579 25779 25806 27993 27994
25368 2 25103 25410
25369 4 23918 25104 25364 25411
25370 5 24355 25271 25405 25960 28683
25371 11 24355 25217 25231 25896 25905 25916 25966 25969 25970 26610 28683
25372 4 24528 25349 25379 25380
25373 7 24271 24273 25255 25431 25661 25680 25681
25374 4 25434 25539 25609 25680
25375 8 25392 25393 25432 25433 25452 25610 25612 25682
25376 4 25391 25395 25436 25446
25377 34 20693 20886 20887 20888 21037 24096 24296 24336 24394 24395 24396 24409 24414 25213 25214 25215 25263 25264 25265 25291 25311 25328 25545 25591 25768 25769 26149 26178 26273 26316 26321 26324 26447 26478
25378 8 21255 24238 24297 24397 24399 25265 25291 25349
25379 4 24528 25349 25372 25380
25380 6 23931 24337 24528 25349 25372 25379
25381 1 25313
25382 10 20880 21043 24337 25314 25350 25352 25581 25583 26095 26160
25383 18 20898 20900 20909 20910 21043 25314 25348 25349 25350 25549 25582 26096 26162 26163 26165 26334 26344 26467
25384 3 24120 24400 25352
25385 3 24123 24401 25575
25386 5 24402 24435 25355 25578 26768
25387 5 21141 24352 26175 26769 26835
25388 6 24224 24707 24766 25609 25677 25678
25389 10 24224 24226 24268 24454 25437 25439 25607 25609 25678 25679
25390 5 25442 25444 25445 25664 25682
25391 5 25376 25436 25446 26029 28305
25392 3 25375 25432 25610
25393 3 25375 25433 25682
25394 1 25436
25395 10 20678 20679 20718 21028 25376 25436 25446 25456 25458 25586
25396 7 20653 20680 20681 25260 25289 25290 25586
25397 3 20806 25338 26220
25398 5 25339 26221 26337 28125 28126
25399 7 25417 26211 26265 26266 28131 28190 28672
25400 2 25417 26211
25401 4 20953 25417 26222 26223
25402 4 20953 25420 26212 26223
25403 8 20953 25420 26212 26213 26214 26215 27229 27240
25404 5 25420 25422 26215 26216 27240
25405 2 25370 28683
25406 2 25417 26222
25407 3 25304 25340 25420
25408 1 25340
25409 2 25340 25420
25410 9 23861 23909 25103 25119 25362 25363 25368 26000 26001
25411 4 23918 25100 25364 25369
25412 2 25363 25921
25413 4 25362 25925 25927 26002
25414 5 23935 25102 25217 25922 25970
25415 3 25101 25365 25923
25416 2 25364 25924
25417 9 25399 25400 25401 25406 25420 26211 26222 26223 28672
25418 5 20808 20958 25422 25427 26216
25419 1 25420
25420 16 25304 25319 25340 25402 25403 25404 25407 25409 25417 25419 25422 26212 26215 26223 28672 28673
25421 2 25301 28669
25422 7 20807 20808 25404 25418 25420 26216 28673
25423 4 20808 25341 26057 28667
25424 3 26059 28666 28674
25425 4 25342 26059 26105 28674
25426 4 25309 26060 26061 28674
25427 3 20808 25418 26216
25428 6 25297 25307 25308 25310 28670 28674
25429 1 25310
25430 5 25253 25287 25432 25539 25608
25431 4 24271 24273 24710 25373
25432 13 25253 25254 25287 25288 25375 25392 25430 25435 25452 25464 25610 25611 25664
25433 6 25256 25375 25393 25445 25612 25682
25434 3 25374 25539 25609
25435 3 25287 25432 25664
25436 13 24232 25228 25229 25259 25376 25391 25394 25395 25455 25456 25457 25586 26029
25437 9 24226 24229 24272 24293 24455 24809 25389 25440 25607
25438 5 25253 25254 25464 25668 28050
25439 4 24224 24454 24768 25389
25440 2 24293 25437
25441 6 25253 25539 25608 25609 25677 25689
25442 3 25390 25664 25682
25443 3 25256 25258 25284
25444 1 25390
25445 5 25257 25390 25433 25454 25682
25446 3 25376 25391 25395
25447 9 25469 25470 25579 25615 25616 25617 25618 25783 25784
25448 2 25621 25787
25449 10 24000 25472 25580 25620 25621 25787 25788 25789 25807 27998
25450 8 20622 20801 21023 25224 25225 25537 25538 28193
25451 5 24268 25252 25607 25609 25679
25452 5 25256 25288 25375 25432 25612
25453 6 24316 25283 25681 25833 26032 26033
25454 4 20676 25257 25445 28057
25455 4 25228 25436 25958 26029
25456 2 25395 25436
25457 1 25436
25458 5 20677 20772 21028 25395 28056
25459 1 24039
25460 2 25467 25638
25461 6 23842 23843 23850 24039 25152 25467
25462 7 24039 25467 28001 28004 28007 28010 28012
25463 5 24265 24707 25660 25677 25689
25464 4 25253 25254 25432 25438
25465 4 25275 25785 25786 27951
25466 1 28004
25467 15 24039 24040 25460 25461 25462 25638 25805 27985 27999 28000 28003 28004 28008 28011 28013
25468 15 20924 20927 25496 25497 25500 25501 25502 25503 25570 25596 25599 25600 25601 25602 28207
25469 2 25447 25615
25470 8 24001 25272 25273 25447 25614 25618 25783 25784
25471 6 23984 23999 24002 25274 25621 25787
25472 5 23984 24000 25449 25787 25789
25473 6 24015 24021 24153 24181 24182 25809
25474 2 23869 25233
25475 8 23873 23898 23900 24018 25237 25239 25276 25791
25476 8 24023 25276 25278 25279 25645 25646 28636 28668
25477 3 25794 25798 28668
25478 3 25239 25281 25795
25479 1 25281
25480 1 24160
25481 2 25281 25799
25482 4 24030 24158 24160 25804
25483 2 25281 25801
25484 2 25281 25801
25485 2 25798 28668
25486 8 23905 23907 24034 24456 25282 25800 25802 25803
25487 1 28668
25488 6 23907 24034 24035 24457 25282 25684
25489 2 25703 25731
25490 6 25703 25731 25732 25743 25823 25990
25491 5 25565 25566 25748 25820 25987
25492 2 25569 25828
25493 5 25568 25594 25752 25772 25827
25494 2 25569 25753
25495 6 25329 25572 25713 25733 25752 28084
25496 15 20960 25468 25569 25570 25571 25709 25750 25751 25753 25828 26017 28083 28085 28156 28207
25497 1 25468
25498 2 25158 25756
25499 14 20961 20963 25124 25157 25158 25209 25572 25573 25574 25714 25733 25754 25755 25756
25500 6 20924 20927 25468 28156 28207 28208
25501 11 20852 20923 20926 25468 25570 25599 25600 25601 25757 28142 28205
25502 4 25468 25601 25602 25757
25503 2 25468 25602
25504 4 20927 25758 28208 28209
25505 6 25330 25334 25597 25759 25775 28210
25506 1 28672
25507 4 25224 25249 25250 25666
25508 2 25249 25666
25509 2 25282 25684
25510 1 24203
25511 3 24200 24305 25648
25512 3 24308 24796 25649
25513 2 24799 25686
25514 2 24203 25218
25515 2 25220 25686
25516 3 24683 24747 25670
25517 3 25247 25655 28028
25518 1 25655
25519 2 25222 25671
25520 1 25672
25521 1 25671
25522 1 25671
25523 1 25672
25524 1 25671
25525 1 25672
25526 1 25672
25527 2 25223 25671
25528 1 25672
25529 4 24218 24290 25249 25672
25530 3 25224 25672 25687
25531 2 25223 28037
25532 1 25224
25533 1 25666
25534 5 24293 24766 25227 25253 25676
25535 1 25249
25536 2 25253 25676
25537 3 20622 25450 28054
25538 10 20671 20744 20747 20972 25224 25250 25450 25674 25675 28043
25539 12 25255 25287 25374 25430 25434 25441 25608 25609 25662 25663 25680 25683
25540 1 25258
25541 2 25261 25360
25542 7 24294 24322 25230 25261 25321 25359 25360
25543 6 25352 25354 25575 26173 26491 26492
25544 2 21036 25290
25545 2 25377 25768
25546 3 20693 25214 26147
25547 1 25349
25548 1 25349
25549 5 25346 25347 25348 25349 25383
25550 2 25575 26570
25551 4 25316 25575 25576 26570
25552 3 25355 25576 26544
25553 2 25355 25577
25554 2 25355 26506
25555 3 25355 25846 26545
25556 5 25266 25839 25848 25849 26546
25557 2 25356 25839
25558 1 25355
25559 2 25318 25840
25560 2 24340 25266
25561 2 25318 25343
25562 6 24247 25267 25357 25866 25868 26557
25563 2 24360 24424
25564 7 24361 24423 24424 25358 25886 25999 26531
25565 8 25491 25592 25704 25744 25748 25820 25987 26015
25566 3 25491 25748 25820
25567 11 25592 25704 25705 25706 25746 25747 25748 25992 28143 28202 28204
25568 2 25493 25772
25569 8 25492 25494 25496 25707 25749 25753 25828 26050
25570 5 25468 25496 25501 26017 28205
25571 2 20960 25496
25572 6 20961 25495 25499 25733 28084 28096
25573 2 25499 25756
25574 3 20961 20963 25499
25575 28 20799 21180 22411 24119 24120 24121 24122 24123 24401 25315 25316 25352 25353 25354 25385 25543 25550 25551 26102 26103 26173 26174 26183 26472 26502 26543 26570 26821
25576 12 25299 25316 25355 25551 25552 26503 26544 26570 26628 26791 26792 26793
25577 4 25355 25553 26544 26794
25578 5 25355 25386 25883 26767 26768
25579 6 25367 25447 25615 25619 25779 25806
25580 3 25449 25620 25807
25581 5 20711 20880 20901 21043 25382
25582 4 20901 21043 25350 25383
25583 3 21043 25382 26160
25584 1 25609
25585 2 25609 25680
25586 9 24277 25229 25259 25260 25289 25395 25396 25436 25613
25587 2 25244 25325
25588 1 25325
25589 2 25325 25766
25590 2 25325 25767
25591 6 24094 25325 25377 25767 25768 26273
25592 6 25565 25567 25704 25744 25746 25748
25593 3 20623 25745 28067
25594 6 25326 25493 25772 25827 25828 26050
25595 3 25120 25329 25733
25596 1 25468
25597 2 25330 25505
25598 1 25332
25599 2 25468 25501
25600 2 25468 25501
25601 4 25468 25501 25502 25757
25602 3 25468 25502 25503
25603 1 25334
25604 2 25120 25332
25605 2 25109 25122
25606 2 25122 25337
25607 6 24229 24268 25252 25389 25437 25451
25608 5 25253 25430 25441 25539 25609
25609 14 25374 25388 25389 25434 25441 25451 25539 25584 25585 25608 25677 25678 25679 25680
25610 5 25375 25392 25432 25664 25682
25611 9 20706 20755 20756 20758 20838 25288 25432 25669 28051
25612 4 25256 25375 25433 25452
25613 3 24277 25229 25586
25614 2 25470 25783
25615 3 25447 25469 25579
25616 1 25447
25617 1 25447
25618 2 25447 25470
25619 1 25579
25620 2 25449 25580
25621 4 25448 25449 25471 25787
25622 1 25272
25623 1 25273
25624 1 25274
25625 1 25273
25626 1 25274
25627 1 25274
25628 1 25273
25629 1 25274
25630 1 25273
25631 1 25274
25632 1 25274
25633 1 25273
25634 1 25274
25635 1 25274
25636 1 25273
25637 1 25274
25638 2 25460 25467
25639 1 25233
25640 1 25236
25641 4 24017 24154 25234 25235
25642 2 24026 24062
25643 1 25278
25644 1 25278
25645 2 25278 25476
25646 2 25279 25476
25647 2 24759 25672
25648 3 24200 24305 25511
25649 2 24796 25512
25650 2 24714 25685
25651 5 24208 24257 24714 25219 25686
25652 2 21006 25247
25653 6 20733 21006 25220 25247 26433 28020
25654 4 24257 25219 25222 25671
25655 11 20632 20670 21008 21013 24257 25220 25223 25247 25517 25518 28025
25656 2 25223 25671
25657 1 25223
25658 2 25253 25676
25659 1 25253
25660 5 24265 25253 25463 25688 25689
25661 3 25255 25373 25680
25662 2 25539 25683
25663 2 25255 25539
25664 10 25287 25390 25432 25435 25442 25610 25682 25683 26023 28304
25665 3 24294 25230 25260
25666 10 20672 20743 25248 25249 25250 25251 25507 25508 25533 28170
25667 5 20673 20847 20973 25253 28171
25668 3 25254 25438 28050
25669 7 20706 20758 20765 20786 20787 25288 25611
25670 3 24747 25219 25516
25671 10 24257 25222 25223 25519 25521 25522 25524 25527 25654 25656
25672 18 24210 24218 24686 24692 24703 24749 24759 25221 25249 25520 25523 25525 25526 25528 25529 25530 25647 25687
25673 3 25224 28032 28193
25674 2 25224 25538
25675 2 25250 25538
25676 9 24223 24265 24292 24766 25253 25534 25536 25658 25688
25677 6 24707 25388 25441 25463 25609 25689
25678 4 24224 25388 25389 25609
25679 4 24268 25389 25451 25609
25680 11 24229 24271 24272 24772 25255 25373 25374 25539 25585 25609 25661
25681 10 24273 24315 24710 24772 25255 25283 25373 25453 26025 26032
25682 8 25375 25390 25393 25433 25442 25445 25610 25664
25683 7 25287 25539 25662 25664 25956 26023 26026
25684 6 24035 24203 25282 25488 25509 25690
25685 4 24251 24714 24796 25650
25686 7 24257 24744 24799 25220 25513 25515 25651
25687 4 25224 25249 25530 25672
25688 4 24265 25253 25660 25676
25689 5 25253 25441 25463 25660 25677
25690 3 24203 25218 25684
25691 4 20816 25325 25737 26309
25692 4 25325 25728 25738 26268
25693 1 25325
25694 3 25325 25738 25739
25695 3 25245 25325 25739
25696 1 25324
25697 8 24326 24483 24632 24847 24849 24902 24914 25324
25698 1 25325
25699 1 25325
25700 10 20816 20845 20846 25325 25728 25729 26268 26272 26309 26373
25701 2 25324 25765
25702 1 25325
25703 5 25489 25490 25731 25732 25743
25704 8 25565 25567 25592 25744 25746 25747 25824 26015
25705 1 25567
25706 4 20624 25567 25748 28204
25707 2 25569 25749
25708 1 25752
25709 2 25496 25750
25710 1 25753
25711 1 25752
25712 1 25753
25713 2 25495 25752
25714 7 25106 25120 25158 25200 25499 25733 25756
25715 1 25334
25716 1 25332
25717 4 25336 25337 25734 25773
25718 1 25337
25719 1 25336
25720 1 25337
25721 2 25121 25336
25722 2 25123 25337
25723 2 25349 25761
25724 5 24065 24378 25272 28554 28557
25725 2 25778 28564
25726 2 25727 28565
25727 3 25726 27329 28565
25728 5 25325 25692 25700 25738 26268
25729 4 20846 25325 25700 26066
25730 3 25325 26066 26369
25731 5 24854 25489 25490 25703 25743
25732 5 25490 25703 25745 25823 25990
25733 7 25120 25329 25495 25499 25572 25595 25714
25734 2 25336 25717
25735 3 21051 21052 28557
25736 2 28560 28570
25737 3 20816 25325 25691
25738 4 25325 25692 25694 25728
25739 3 25325 25694 25695
25740 1 25325
25741 2 25325 25767
25742 11 23922 24104 24326 24493 24495 24634 24893 24894 25826 25979 25984
25743 6 24854 25490 25703 25731 25821 25990
25744 3 25565 25592 25704
25745 6 20623 25593 25732 25823 28200 28324
25746 3 25567 25592 25704
25747 6 25567 25704 25822 25824 25992 26047
25748 11 20624 25491 25565 25566 25567 25592 25706 25820 28066 28204 28291
25749 2 25569 25707
25750 2 25496 25709
25751 1 25496
25752 7 25329 25493 25495 25708 25711 25713 25772
25753 5 25494 25496 25569 25710 25712
25754 1 25499
25755 1 25499
25756 5 25158 25498 25499 25573 25714
25757 3 25501 25502 25601
25758 2 20927 25504
25759 7 25333 25335 25505 25775 28210 28211 28215
25760 2 28211 28215
25761 3 25349 25723 25774
25762 5 25121 25775 28214 28215 28216
25763 4 25126 25176 28212 28213
25764 5 25121 25125 25177 25208 28214
25765 7 24326 24490 24893 24917 25324 25701 25979
25766 3 24105 25325 25589
25767 6 24094 24105 25325 25590 25591 25741
25768 5 24094 24409 25377 25545 25591
25769 2 24096 25377
25770 3 24499 24918 25826
25771 4 23976 24110 24113 25327
25772 12 23976 24097 24108 24110 24113 25326 25327 25329 25493 25568 25594 25752
25773 4 24925 25336 25337 25717
25774 4 24417 24924 25349 25761
25775 13 24099 24115 24330 24415 25121 25330 25333 25335 25336 25505 25759 25762 28215
25776 1 25336
25777 3 23930 25122 25337
25778 4 25725 28560 28563 28564
25779 2 25367 25579
25780 5 23898 24081 25276 28649 28655
25781 4 21051 28520 28557 28570
25782 1 24065
25783 3 25447 25470 25614
25784 2 25447 25470
25785 3 25275 25465 27951
25786 4 25241 25275 25465 27951
25787 7 23984 23999 25448 25449 25471 25472 25621
25788 1 25449
25789 3 24000 25449 25472
25790 1 25808
25791 3 23898 25237 25475
25792 2 23874 25240
25793 2 23878 25238
25794 2 25477 28668
25795 2 25239 25478
25796 3 23873 25239 25281
25797 4 23877 24024 24160 25281
25798 3 25477 25485 28668
25799 4 23877 24160 25281 25481
25800 1 25486
25801 3 25281 25483 25484
25802 1 25486
25803 1 25486
25804 7 24030 24160 24300 24456 24667 25280 25482
25805 1 25467
25806 5 25367 25579 27994 27995 27996
25807 4 25449 25580 27997 27998
25808 1 25790
25809 12 23896 23897 24015 24019 24021 24151 24152 24179 24184 25232 25237 25473
25810 5 21473 24279 25829 26746 26747
25811 2 21435 24279
25812 9 24485 24663 24850 25002 25066 25068 25972 25974 26018
25813 5 25003 25067 25068 25973 26018
25814 9 24486 24527 24851 24891 25974 25975 26009 26019 26039
25815 3 24489 24917 25978
25816 8 25975 25977 26010 26011 26038 28219 28278 28309
25817 5 25003 25976 25980 26020 26022
25818 3 25981 26014 26043
25819 8 24494 24852 25003 25981 25985 26042 26043 28312
25820 10 25491 25565 25566 25748 25986 25987 26015 28225 28288 28291
25821 3 24854 25743 25990
25822 3 25747 25992 26047
25823 5 25490 25732 25745 25990 28324
25824 4 25704 25747 26015 26047
25825 4 25993 28229 28323 28326
25826 21 24497 24499 24852 24853 24863 24917 24918 25742 25770 25978 25979 25982 25983 25984 25985 25993 26016 26040 26041 26045 26046
25827 5 25493 25594 26048 26049 26050
25828 19 24328 24498 24499 24870 24871 24872 25326 25492 25496 25569 25594 25988 25991 25993 26017 26050 26051 28142 28205
25829 7 21353 21356 21358 24279 25810 26747 26830
25830 3 25831 26507 26634
25831 8 25355 25830 26506 26507 26545 26573 26600 26634
25832 8 21471 25836 25844 26702 26715 26737 28240 28306
25833 6 25453 26027 26032 26033 26034 28301
25834 2 26035 28302
25835 15 21352 21450 21454 21457 21465 21481 24278 24279 24356 24426 26738 26740 26797 26831 26836
25836 4 21482 25832 25844 28240
25837 13 21066 21099 21137 21139 21170 25266 25848 25994 25995 26508 26509 26511 26652
25838 9 21065 21066 25266 25996 25997 26512 26562 26652 26764
25839 11 25266 25267 25356 25556 25557 25849 25854 26515 26516 26549 26676
25840 9 21067 21068 25300 25318 25343 25559 25959 25997 25998
25841 6 25269 25345 25904 25964 25968 26661
25842 14 24355 25269 25270 25271 25960 26535 26587 26606 26607 26608 26625 26662 28684 28692
25843 6 21080 21219 21242 24977 25931 25932
25844 10 21164 21165 21433 25832 25836 25914 26538 26568 26787 28306
25845 4 21139 26508 26509 26652
25846 6 25355 25555 26545 26548 26573 26600
25847 1 26674
25848 7 21170 21391 25266 25556 25837 26510 26546
25849 6 25556 25839 26510 26515 26546 26674
25850 1 26516
25851 4 25355 25882 26551 26779
25852 1 26516
25853 1 26653
25854 6 25267 25839 26516 26518 26550 26676
25855 2 26529 26653
25856 2 26529 26653
25857 3 25267 26518 26554
25858 2 26529 26678
25859 1 26529
25860 2 26529 26554
25861 1 26529
25862 4 25267 26529 26554 26555
25863 1 26529
25864 1 26529
25865 1 26529
25866 5 25267 25562 26529 26555 26557
25867 2 26528 26529
25868 3 25357 25562 26557
25869 2 26529 26601
25870 1 26602
25871 2 26658 26679
25872 4 26533 26679 26780 28371
25873 4 26559 26577 26780 28371
25874 2 26560 26781
25875 2 26781 28371
25876 2 26567 28371
25877 8 25905 25961 25962 25967 25971 27472 27473 27480
25878 6 26027 26028 26034 28293 28301 28303
25879 6 20462 20491 21077 21259 24963 25944
25880 4 20464 20519 21079 24964
25881 3 21079 24231 26035
25882 4 25355 25851 26551 26779
25883 12 25355 25578 26514 26517 26519 26547 26551 26552 26573 26634 26765 26767
25884 4 25357 26529 26557 26558
25885 4 25357 26529 26556 26558
25886 3 25564 25999 26530
25887 8 24424 25358 26531 26563 26564 26565 26602 28371
25888 5 21069 24299 24424 26565 28371
25889 3 21060 25895 25902
25890 3 25898 25913 25920
25891 4 21162 25909 25914 25920
25892 3 21147 25909 25920
25893 2 26610 28683
25894 6 21102 21156 21243 21388 25115 25907
25895 10 21060 21061 25889 25902 26580 26581 26582 26598 26612 26616
25896 4 25371 25905 25916 26610
25897 5 21146 21482 25908 25912 25913
25898 4 25890 25913 25918 25920
25899 2 25918 25920
25900 3 21147 25262 25918
25901 6 25268 25959 26003 26004 26611 28586
25902 5 25344 25889 25895 25926 26004
25903 8 21063 25344 26006 26583 26584 26599 26619 26621
25904 4 25345 25841 25968 26007
25905 12 25371 25877 25896 25916 25961 25969 25971 26005 26008 26610 27484 28688
25906 7 21174 21484 21488 21489 25910 25911 25917
25907 2 25115 25894
25908 7 21146 24391 24408 25897 25913 25917 25918
25909 8 21124 21147 21163 21179 25891 25892 25914 25920
25910 4 21146 21174 25906 25917
25911 5 21484 24391 25906 25917 25919
25912 6 21145 21146 21175 21482 25897 26666
25913 9 21100 21162 21482 25890 25897 25898 25908 25918 25920
25914 7 21103 21162 21179 25844 25891 25909 26568
25915 3 25960 28682 28684
25916 3 25371 25896 25905
25917 6 21146 24391 25906 25908 25910 25911
25918 12 21147 24389 24392 24408 24418 25262 25898 25899 25900 25908 25913 25920
25919 7 21484 21486 21490 24299 24391 25292 25911
25920 10 21147 21162 25890 25891 25892 25898 25899 25909 25913 25918
25921 1 25412
25922 4 25217 25414 25970 27463
25923 2 25415 27465
25924 2 25416 27466
25925 4 25413 25927 27464 27474
25926 5 24354 25268 25344 25902 26004
25927 5 25413 25925 26002 27358 27489
25928 2 25933 26030
25929 3 25958 26029 28305
25930 3 21276 24362 24980
25931 3 21242 24977 25843
25932 5 21080 24977 25261 25360 25843
25933 2 25928 26030
25934 2 24314 26024
25935 2 24259 24314
25936 8 20521 20522 21329 24259 24314 24716 24717 24785
25937 2 25015 25016
25938 1 24980
25939 2 24957 24980
25940 11 23582 24948 24954 24955 24957 24958 24960 25017 25023 25040 25058
25941 1 24979
25942 1 24980
25943 1 24979
25944 2 24963 25879
25945 3 20586 24963 24968
25946 2 24968 24979
25947 1 24980
25948 2 24964 24975
25949 1 24975
25950 1 24980
25951 1 24975
25952 1 24979
25953 1 24979
25954 1 24975
25955 2 24975 24980
25956 3 25683 26026 28304
25957 2 26025 28300
25958 4 25228 25455 25929 26029
25959 11 21067 21068 25268 25343 25840 25901 25998 26003 26578 26611 28307
25960 7 25271 25370 25842 25915 28682 28683 28684
25961 11 25877 25905 26005 27469 27480 27481 27482 27485 27486 27487 27488
25962 5 25877 27470 27473 27480 27485
25963 2 25964 26585
25964 5 25841 25963 25968 26585 26661
25965 4 25970 27467 27468 27477
25966 8 25371 25967 25969 25970 25971 26008 27468 27479
25967 7 25877 25966 25971 27471 27472 27479 27483
25968 6 25841 25904 25964 26007 26585 26624
25969 4 25371 25905 25966 26008
25970 9 25217 25231 25371 25414 25922 25965 25966 27463 27467
25971 5 25877 25905 25966 25967 26008
25972 4 24485 24665 25066 25812
25973 3 25067 25813 26018
25974 9 24486 24488 24850 24851 25812 25814 26018 26019 26039
25975 6 24527 25814 25816 26010 26011 26039
25976 5 25003 25067 25817 26020 26022
25977 4 25816 28219 28278 28309
25978 4 24489 24917 25815 25826
25979 6 24493 24893 24917 25742 25765 25826
25980 2 25003 25817
25981 4 25003 25818 25819 26043
25982 2 25826 26040
25983 3 25826 26041 26045
25984 4 24853 24894 25742 25826
25985 9 24494 24852 25819 25826 28284 28310 28312 28314 28315
25986 4 25820 28225 28226 28288
25987 3 25491 25565 25820
25988 6 24497 24498 24867 24869 25326 25828
25989 2 28290 28323
25990 6 25490 25732 25743 25821 25823 28324
25991 1 25828
25992 8 25567 25747 25822 28143 28202 28292 28322 28327
25993 16 24499 25825 25826 25828 28142 28229 28285 28287 28316 28317 28318 28319 28320 28321 28323 28326
25994 2 25837 26652
25995 2 25837 26511
25996 4 21066 25838 26512 26513
25997 8 21067 25266 25318 25838 25840 26562 26652 26764
25998 4 21067 21068 25840 25959
25999 5 25564 25886 26530 26531 26602
26000 4 25362 25410 26001 26002
26001 5 23909 25119 25362 25410 26000
26002 4 25362 25413 25927 26000
26003 4 25901 25959 26611 28586
26004 4 25268 25901 25902 25926
26005 4 25905 25961 27469 28688
26006 1 25903
26007 3 25904 25968 26624
26008 4 25905 25966 25969 25971
26009 2 25814 26039
26010 2 25816 25975
26011 2 25816 25975
26012 1 26044
26013 1 26044
26014 3 25818 26043 26044
26015 4 25565 25704 25820 25824
26016 1 25826
26017 5 25496 25570 25828 28142 28205
26018 5 25068 25812 25813 25973 25974
26019 2 25814 25974
26020 2 25817 25976
26021 2 26039 28220
26022 3 25817 25976 28221
26023 4 25664 25683 26026 28304
26024 2 24314 25934
26025 4 25681 25957 26032 28300
26026 4 25683 25956 26023 28304
26027 6 25833 25878 26032 26034 28300 28303
26028 3 25878 28293 28303
26029 7 25391 25436 25455 25929 25958 26036 28305
26030 8 20396 20572 20585 21327 24445 24782 25928 25933
26031 1 24963
26032 6 25453 25681 25833 26025 26027 28300
26033 5 21078 24316 25453 25833 28301
26034 4 25833 25878 26027 28301
26035 5 24231 25228 25834 25881 28302
26036 2 26029 28305
26037 16 24917 24993 24995 24996 24997 24999 25001 25002 25029 25032 25033 25035 25062 25064 25065 25066
26038 2 25816 28219
26039 7 25814 25974 25975 26009 26021 28220 28277
26040 2 25826 25982
26041 2 25826 25983
26042 1 25819
26043 4 25818 25819 25981 26014
26044 3 26012 26013 26014
26045 2 25826 25983
26046 1 25826
26047 3 25747 25822 25824
26048 1 25827
26049 1 25827
26050 4 25569 25594 25827 25828
26051 1 25828
26052 4 21732 21752 21788 28344
26053 19 21519 21524 21560 21561 21612 21614 21616 21619 21622 21627 21629 21746 21785 21786 21787 21788 28341 28342 28344
26054 5 26849 26850 26899 26906 26907
26055 11 21494 21680 21681 21696 21828 21829 26849 26850 26889 26890 26893
26056 2 23881 24036
26057 5 20720 20808 25423 26226 27234
26058 3 20719 20720 27234
26059 9 20721 20722 20723 20811 25424 25425 26104 27240 28674
26060 3 20726 25309 25426
26061 9 20726 20812 20815 25426 26108 26111 27103 27107 28674
26062 13 20730 20731 20732 20813 20814 21220 21222 25310 26729 27395 27398 28674 28705
26063 1 27395
26064 1 26373
26065 4 26353 26355 26372 26373
26066 30 20818 20819 20820 20821 20822 20845 20846 25325 25729 25730 26267 26269 26270 26271 26272 26353 26358 26359 26360 26361 26362 26363 26364 26365 26366 26367 26368 26369 26370 26373
26067 12 20824 25311 26186 26258 26273 26354 26370 26371 26373 26440 28136 28218
26068 2 20733 28020
26069 5 20641 20733 26433 28023 28024
26070 13 20642 20666 20669 20735 20830 26112 26404 26429 26431 26432 26433 26434 28028
26071 4 20670 20737 26406 28041
26072 4 26117 26406 26409 28041
26073 5 20741 26121 26410 26411 27044
26074 4 20661 20715 26412 28039
26075 3 20741 26411 27044
26076 4 26127 26413 26437 27172
26077 10 20739 21021 26119 26120 26126 26409 26436 26437 27172 28041
26078 4 26127 26413 26414 27048
26079 4 20672 20745 25251 28170
26080 7 20634 20673 20749 26235 26248 28045 28171
26081 12 20741 20742 26127 26129 26176 26414 26415 26980 27044 27046 27047 27048
26082 10 20748 26128 26412 26416 26438 26978 27173 27174 28040 28042
26083 3 20766 26249 26297
26084 3 26250 27069 27252
26085 17 20685 20686 20687 20792 21030 26133 26134 26234 26238 26239 26240 26255 26298 26299 27064 27072 27184
26086 2 20687 26246
26087 20 26137 26240 26300 26304 26307 26419 26420 26421 26424 26991 26993 26994 27000 27073 27185 27187 27188 27189 27190 27314
26088 1 20689
26089 5 20776 20794 26136 26246 26422
26090 4 20690 21050 26140 28180
26091 4 20776 20794 26123 26136
26092 3 20650 21036 26124
26093 15 20780 20794 20795 20990 21035 26123 26125 26138 26139 26257 26425 26426 27255 27257 28181
26094 2 26206 26336
26095 7 20712 20797 21043 25352 25382 26160 26380
26096 6 20909 20910 25383 26161 26166 26381
26097 3 20911 20912 26344
26098 2 20912 26344
26099 4 20912 20913 26344 26468
26100 4 20881 20913 26208 26344
26101 7 20915 26168 26169 26343 26344 26470 26490
26102 3 25575 26174 28257
26103 3 25575 26502 28258
26104 3 20811 26059 28674
26105 3 25306 25425 28674
26106 4 20724 20811 25309 28674
26107 8 20723 20725 20809 20810 20811 27236 27238 27240
26108 8 20724 20725 20726 20811 25309 26061 27102 27243
26109 2 28674 28705
26110 2 25310 28674
26111 3 20727 20812 26061
26112 3 20830 26070 26429
26113 5 20734 21012 28029 28579 28580
26114 3 20669 26435 28035
26115 4 20669 26435 28030 28035
26116 6 20737 21019 26405 26407 27038 28034
26117 4 20737 26072 26406 26409
26118 3 20739 20831 26436
26119 4 20831 26077 26409 26436
26120 3 20739 26077 26436
26121 6 20741 26073 26407 26408 26410 27044
26122 2 20741 26410
26123 10 20776 20793 20794 20843 21031 21032 21034 26091 26093 28181
26124 7 20640 20650 20681 20690 21036 25290 26092
26125 7 26093 27000 27255 27257 27316 27317 27318
26126 5 20741 21021 26077 26177 26437
26127 9 20741 20742 26076 26078 26081 26177 26413 26414 26437
26128 4 20748 20785 26082 26438
26129 4 26081 26176 26980 27048
26130 4 20636 20750 21023 28054
26131 4 20785 26417 26438 27174
26132 7 20683 20766 20788 25288 27063 27181 28057
26133 6 20686 20773 26085 26238 26239 26298
26134 6 20687 20777 26085 26246 26254 26255
26135 2 20777 26246
26136 4 20776 20794 26089 26091
26137 5 26087 26247 26423 26424 27190
26138 3 20794 26093 26425
26139 5 20779 20794 26093 26425 26426
26140 8 20640 20649 20650 20690 21036 26090 28065 28180
26141 3 20651 26427 28065
26142 5 20651 26185 26427 27256 28065
26143 3 26185 26374 27256
26144 1 27257
26145 1 26374
26146 7 26374 27007 27256 27258 27259 27260 27323
26147 7 20693 20878 25214 25546 26262 26324 26448
26148 2 20888 26453
26149 7 20888 25214 25377 26263 26330 26453 26807
26150 5 25349 26347 26455 26755 26829
26151 2 25349 26455
26152 1 26482
26153 4 25349 26455 26456 26482
26154 5 25349 26179 26341 26456 26457
26155 5 25349 26180 26348 26457 26459
26156 7 20796 20890 20906 26200 26202 26342 26387
26157 3 20894 20906 26460
26158 4 20890 20893 20906 26202
26159 7 20891 20894 20898 20906 20908 25349 26460
26160 4 21043 25382 25583 26095
26161 4 20909 26096 26206 26381
26162 3 21043 25383 26344
26163 2 25383 26344
26164 4 20798 25352 26344 26380
26165 4 20910 25383 26207 26344
26166 4 20910 26096 26344 26381
26167 3 20910 26207 26344
26168 5 20914 20915 26101 26344 26468
26169 4 26101 26343 26344 26470
26170 4 26344 26345 26394 26470
26171 2 26345 26471
26172 2 20904 28255
26173 24 20799 20916 20917 25315 25354 25543 25575 26183 26184 26345 26346 26383 26470 26471 26474 26475 26476 26487 26488 26489 26491 26492 26789 28258
26174 4 20799 25575 26102 28257
26175 5 21141 24352 25387 26773 26835
26176 4 26081 26129 26415 27048
26177 4 20741 26126 26127 26437
26178 5 20888 20889 25215 25377 26453
26179 3 25349 26154 26457
26180 5 20709 26155 26348 26459 26479
26181 6 20708 20709 20844 25349 26350 26459
26182 2 20898 26333
26183 4 20903 25354 25575 26173
26184 2 26173 26346
26185 9 20651 20652 20691 26142 26143 26373 26374 27256 28199
26186 5 26067 26218 26219 26258 26373
26187 1 26320
26188 9 26218 26312 26313 26314 26315 26317 26338 26447 27110
26189 3 26260 26320 26443
26190 4 26259 26283 26317 27111
26191 2 26260 26320
26192 1 26284
26193 6 26260 26284 26286 26325 26339 27113
26194 4 26286 26287 26339 27115
26195 7 26287 26326 26330 26339 26451 26809 27116
26196 13 26288 26289 26328 26330 26340 26494 26642 26751 26752 26813 26816 26825 27120
26197 11 26291 26347 26395 26455 26482 26499 26643 26644 26817 26827 27122
26198 8 26341 26385 26395 26396 26397 26456 26482 27124
26199 3 27013 27015 27129
26200 16 26156 26342 26348 26349 26385 26387 26398 26458 26460 26479 27012 27013 27127 27128 27129 27132
26201 3 27013 27015 27132
26202 8 20890 20893 26156 26158 26294 26351 26387 27134
26203 9 20896 21038 21039 26294 26377 26378 26389 26480 27144
26204 11 26333 26378 26391 26392 26399 26400 26402 26403 26463 26483 27145
26205 8 20879 26334 26352 26467 26483 26721 26733 27147
26206 9 20909 21312 26094 26161 26336 26379 26381 27151 27154
26207 5 20910 26165 26167 26344 26382
26208 1 26100
26209 8 26344 26381 26486 27024 27027 27154 27156 27158
26210 5 26346 26383 26723 26758 27162
26211 5 25399 25400 25417 26222 28190
26212 4 20953 25402 25403 25420
26213 2 25403 27229
26214 4 20957 25403 26224 27240
26215 4 25403 25404 25420 27240
26216 8 20808 20958 20959 25404 25418 25422 25427 27240
26217 1 20764
26218 10 26186 26188 26219 26312 26313 26314 26338 26373 26374 27110
26219 5 26186 26218 26258 26311 26338
26220 6 20806 20937 20944 25397 28120 28122
26221 2 25398 28125
26222 7 20918 20953 25401 25406 25417 26211 28190
26223 5 20953 25401 25402 25417 25420
26224 3 20957 26214 27240
26225 2 27240 27308
26226 3 20808 26057 27234
26227 1 20759
26228 2 20759 28051
26229 2 20643 20759
26230 1 20759
26231 1 20764
26232 1 20764
26233 2 20764 20976
26234 3 20985 26085 26298
26235 2 20749 26080
26236 5 20754 21027 26982 27175 28055
26237 6 20764 21027 26439 27055 27175 27176
26238 4 20685 20773 26085 26133
26239 4 20686 26085 26133 26298
26240 5 26085 26087 26255 26299 26300
26241 3 26255 26301 26421
26242 4 20777 20842 26255 26301
26243 2 20777 26255
26244 9 20842 26301 26302 26303 26305 26306 26307 26421 26424
26245 2 20777 26255
26246 11 20687 20776 20777 20795 21047 26086 26089 26134 26135 26254 26422
26247 3 26137 26424 27190
26248 5 20634 20749 26080 28047 28172
26249 6 20766 26083 26297 27067 27181 27183
26250 8 26084 26252 26253 26297 26418 27069 27183 27252
26251 2 26253 27186
26252 3 26250 26297 26418
26253 10 20638 20717 20790 20984 26250 26251 26297 26418 27186 27252
26254 2 26134 26246
26255 11 20777 26085 26134 26240 26241 26242 26243 26245 26300 26301 26421
26256 3 20707 20780 26308
26257 5 20780 20989 26093 27255 27315
26258 13 20884 20885 21037 26067 26186 26219 26310 26311 26338 26440 26441 26477 28218
26259 1 26190
26260 13 26189 26191 26193 26284 26320 26322 26323 26324 26325 26443 26445 26447 26448
26261 1 26325
26262 9 20878 25214 26147 26325 26339 26448 26449 26805 26806
26263 6 26149 26330 26339 26807 26808 26823
26264 3 20946 28122 28123
26265 2 25399 28131
26266 3 25399 28131 28190
26267 6 20817 20818 26066 26353 26355 26356
26268 5 20816 25325 25692 25700 25728
26269 5 20818 20845 26066 26356 26361
26270 5 20820 20845 26066 26357 26359
26271 2 26066 26361
26272 6 20821 20845 20846 25700 26066 26363
26273 9 20823 20824 20825 25311 25325 25377 25591 26067 26371
26274 2 20944 28119
26275 4 20944 28119 28120 28183
26276 2 20944 28120
26277 4 20946 28120 28123 28183
26278 6 20938 20939 20948 28121 28124 28186
26279 7 20945 27213 27220 27263 28183 28184 28185
26280 3 27091 27220 27263
26281 1 27110
26282 2 26317 27111
26283 2 26190 27111
26284 4 26192 26193 26260 27113
26285 3 26998 27112 27327
26286 6 26193 26194 26339 26446 27113 27115
26287 9 26194 26195 26326 26327 26339 27114 27115 27116 27120
26288 4 26196 26329 26330 27120
26289 6 26196 26328 26330 26340 26452 27119
26290 2 26340 26810
26291 3 26197 26347 26455
26292 4 20710 20908 26350 26460
26293 2 20894 20906
26294 13 20892 20893 20896 20897 20906 21038 21041 26202 26203 26351 26388 26461 26480
26295 2 20898 21039
26296 7 20902 20909 26335 26336 26467 26733 26757
26297 9 20638 20766 26083 26249 26250 26252 26253 26418 27183
26298 4 26085 26133 26234 26239
26299 2 26085 26240
26300 4 26087 26240 26255 26421
26301 6 20842 26241 26242 26244 26255 26421
26302 1 26244
26303 2 26244 26424
26304 2 26087 26421
26305 4 20778 20842 26244 26424
26306 2 26244 26424
26307 4 26087 26244 26421 26424
26308 2 20707 26256
26309 10 20652 20692 20816 25290 25320 25325 25691 25700 26373 26428
26310 4 25311 26258 26440 26441
26311 3 26219 26258 26338
26312 2 26188 26218
26313 2 26188 26218
26314 3 26188 26218 27110
26315 2 26188 27110
26316 6 25213 25312 25377 26338 26442 26478
26317 5 26188 26190 26282 27110 27111
26318 4 25312 26338 26442 26444
26319 2 26444 26485
26320 4 26187 26189 26191 26260
26321 6 25263 25312 25377 26338 26444 26447
26322 1 26260
26323 1 26260
26324 8 20693 25264 25377 26147 26260 26447 26448 26481
26325 6 26193 26260 26261 26262 26339 26448
26326 3 26195 26287 26339
26327 3 26287 27116 27120
26328 3 26196 26289 27119
26329 2 26288 27120
26330 18 26149 26195 26196 26263 26288 26289 26339 26340 26450 26451 26452 26453 26808 26809 27116 27117 27118 27120
26331 1 26812
26332 6 20889 25215 26340 26453 26539 26812
26333 6 20898 26182 26204 26378 26400 26483
26334 6 20879 20898 20900 25383 26205 26467
26335 3 26296 26467 26733
26336 8 20902 20909 21309 26094 26206 26296 26379 26757
26337 10 20948 25398 28125 28126 28127 28128 28129 28130 28132 28189
26338 14 20907 21037 26188 26218 26219 26258 26311 26316 26318 26321 26442 26444 26447 26478
26339 14 26193 26194 26195 26262 26263 26286 26287 26325 26326 26330 26449 26805 26808 26823
26340 17 21238 21240 26196 26289 26290 26330 26332 26453 26454 26494 26539 26810 26811 26812 26813 26814 26815
26341 7 26154 26198 26348 26385 26396 26456 26457
26342 5 20796 20906 26156 26200 26460
26343 3 26101 26169 26470
26344 34 20712 20881 20910 20911 20912 20913 21003 21043 25352 25383 26097 26098 26099 26100 26101 26162 26163 26164 26165 26166 26167 26168 26169 26170 26207 26209 26380 26381 26382 26393 26394 26468 26470 27158
26345 11 26170 26171 26173 26383 26394 26469 26470 26471 26473 27034 27158
26346 10 26173 26184 26210 26383 26384 26474 26475 26489 26758 26789
26347 7 26150 26197 26291 26455 26644 26755 26829
26348 10 26155 26180 26200 26341 26385 26386 26398 26457 26458 26479
26349 4 20709 26200 26460 26479
26350 8 20708 20709 20710 20844 20908 26181 26292 26460
26351 6 26202 26294 26461 27134 27135 27136
26352 5 26205 26392 26464 26483 27147
26353 6 26065 26066 26267 26355 26372 26373
26354 5 25325 26067 26370 28136 28217
26355 5 20817 26065 26267 26353 26373
26356 5 20817 20818 20845 26267 26269
26357 3 20820 20845 26270
26358 2 20818 26066
26359 3 20845 26066 26270
26360 3 20820 20845 26066
26361 5 20818 20819 26066 26269 26271
26362 2 20820 26066
26363 3 20821 26066 26272
26364 2 20846 26066
26365 2 26066 26373
26366 2 20822 26066
26367 2 20822 26066
26368 3 20822 20846 26066
26369 4 25325 25730 26066 26370
26370 6 25325 26066 26067 26354 26369 26373
26371 6 20823 25325 26067 26273 28136 28217
26372 2 26065 26353
26373 18 20817 20845 25700 26064 26065 26066 26067 26185 26186 26218 26309 26353 26355 26365 26370 26374 26428 28199
26374 9 26143 26145 26146 26185 26218 26373 27110 27256 27260
26375 1 27139
26376 1 27015
26377 4 26203 26480 27142 27144
26378 11 20898 21039 26203 26204 26333 26389 26399 26400 26401 26402 26462
26379 6 21309 21312 21368 21411 26206 26336
26380 6 20712 20798 25352 26095 26164 26344
26381 7 26096 26161 26166 26206 26209 26344 27154
26382 2 26207 26344
26383 8 26173 26210 26345 26346 26471 26473 27034 27162
26384 1 26346
26385 8 26198 26200 26341 26348 26397 26398 27126 27127
26386 3 26348 26458 26479
26387 7 26156 26200 26202 27130 27132 27133 27134
26388 6 26294 26461 26480 27135 27139 27142
26389 6 26203 26378 26401 27016 27144 27147
26390 2 27146 27147
26391 5 26204 26403 26464 27145 27147
26392 5 26204 26352 26403 26464 26483
26393 1 26344
26394 5 26170 26344 26345 26469 27158
26395 5 26197 26198 26482 27122 27124
26396 2 26198 26341
26397 6 26198 26385 27012 27124 27125 27126
26398 3 26200 26348 26385
26399 2 26204 26378
26400 3 26204 26333 26378
26401 4 26378 26389 26462 27145
26402 4 26204 26378 26462 27145
26403 5 26204 26391 26392 26463 26464
26404 2 26070 28028
26405 2 26116 28034
26406 5 20737 26071 26072 26117 28041
26407 5 20741 21019 26116 26121 27044
26408 2 26121 27044
26409 7 20737 20831 26072 26077 26117 26119 28041
26410 4 20741 26073 26121 26122
26411 4 20741 26073 26075 27044
26412 6 20661 20748 26074 26082 28039 28040
26413 5 26076 26078 26127 27048 27172
26414 4 26078 26081 26127 27048
26415 3 26081 26176 27048
26416 2 26082 26978
26417 2 26131 27174
26418 4 26250 26252 26253 26297
26419 2 26087 26993
26420 1 26087
26421 8 26087 26241 26244 26255 26300 26301 26304 26307
26422 5 20779 20794 20795 26089 26246
26423 2 26137 27190
26424 11 20778 21046 21047 26087 26137 26244 26247 26303 26305 26306 26307
26425 4 20794 26093 26138 26139
26426 5 20779 20795 20877 26093 26139
26427 4 20651 26141 26142 28065
26428 4 20692 26309 26373 28199
26429 3 20830 26070 26112
26430 3 20830 28028 28191
26431 1 26070
26432 1 26070
26433 7 20641 20666 20733 21006 25653 26069 26070
26434 2 20642 26070
26435 4 20669 26114 26115 28035
26436 6 20739 20831 26077 26118 26119 26120
26437 6 26076 26077 26126 26127 26177 27172
26438 6 20753 20785 26082 26128 26131 27174
26439 1 26237
26440 5 25311 26067 26258 26310 28218
26441 4 20884 25311 26258 26310
26442 5 25312 26316 26318 26338 26484
26443 2 26189 26260
26444 6 25312 26318 26319 26321 26338 26485
26445 1 26260
26446 1 26286
26447 8 25264 25377 26188 26260 26321 26324 26338 26481
26448 5 26147 26260 26262 26324 26325
26449 6 25214 26262 26339 26805 26806 26823
26450 2 26330 27117
26451 3 26195 26330 26809
26452 3 26289 26330 27119
26453 8 20888 20889 26148 26149 26178 26330 26332 26340
26454 4 26340 26539 26810 26812
26455 8 25349 26150 26151 26153 26197 26291 26347 26482
26456 6 25349 26153 26154 26198 26341 26482
26457 6 25349 26154 26155 26179 26341 26348
26458 4 26200 26348 26386 26479
26459 5 20709 25349 26155 26180 26181
26460 11 20709 20894 20906 20908 26157 26159 26200 26292 26342 26349 26350
26461 4 26294 26351 26388 27135
26462 4 26378 26401 26402 27145
26463 2 26204 26403
26464 5 26352 26391 26392 26403 27147
26465 1 20898
26466 4 26718 26721 26734 27148
26467 9 20879 20900 20909 25383 26205 26296 26334 26335 26733
26468 7 20912 20913 20915 25352 26099 26168 26344
26469 2 26345 26394
26470 12 25351 25352 26101 26169 26170 26173 26343 26344 26345 26490 26491 26818
26471 4 26171 26173 26345 26383
26472 8 22410 22411 22412 24119 24120 24121 24122 25575
26473 2 26345 26383
26474 4 26173 26346 26488 26489
26475 3 26173 26346 26489
26476 3 20917 26173 28258
26477 3 20885 21037 26258
26478 5 20887 21037 25377 26316 26338
26479 7 20709 26180 26200 26348 26349 26386 26458
26480 5 26203 26294 26377 26388 27142
26481 3 25264 26324 26447
26482 7 26152 26153 26197 26198 26395 26455 26456
26483 5 26204 26205 26333 26352 26392
26484 2 25312 26442
26485 3 25312 26319 26444
26486 1 26209
26487 1 26173
26488 2 26173 26474
26489 4 26173 26346 26474 26475
26490 7 20882 20883 20915 21004 25352 26101 26470
26491 4 25352 25543 26173 26470
26492 3 25354 25543 26173
26493 1 28561
26494 11 21240 21241 21255 25349 26196 26340 26540 26541 26813 26815 26825
26495 4 26642 26752 26816 26825
26496 2 26642 26825
26497 1 26561
26498 6 21241 25349 26642 26824 26826 26833
26499 8 26197 26561 26643 26753 26817 26826 26833 27121
26500 1 26827
26501 3 25349 26755 26827
26502 8 21181 25575 26103 26570 26786 26790 26821 28258
26503 4 21129 25576 26628 26791
26504 5 26544 26634 26760 26762 26794
26505 2 26762 26794
26506 6 25355 25554 25831 26634 26762 26794
26507 3 25830 25831 26634
26508 5 21137 21139 25837 25845 26652
26509 4 21139 25837 25845 26652
26510 9 21256 21257 21258 21268 21391 25848 25849 26546 26674
26511 4 21066 25837 25995 26652
26512 2 25838 25996
26513 2 21066 25996
26514 4 21203 25883 26551 26573
26515 6 25839 25849 26549 26633 26674 26684
26516 5 25839 25850 25852 25854 26676
26517 2 25883 26634
26518 6 25267 25854 25857 26554 26653 26676
26519 7 25883 26552 26575 26677 26685 26765 26769
26520 2 26769 26834
26521 3 21140 26575 26834
26522 8 21140 26575 26655 26769 26773 26834 26835 28373
26523 2 21142 26773
26524 2 21142 21457
26525 1 26656
26526 1 26656
26527 1 26656
26528 1 25867
26529 25 25855 25856 25858 25859 25860 25861 25862 25863 25864 25865 25866 25867 25869 25884 25885 26554 26555 26556 26557 26558 26601 26635 26653 26656 26678
26530 3 25886 25999 26602
26531 5 25358 25564 25887 25999 26602
26532 4 26576 26602 26679 28371
26533 4 25872 26658 26679 26780
26534 6 21177 26577 26660 26781 28371 28372
26535 4 25842 26587 28692 28738
26536 4 21165 26590 26690 26692
26537 9 21120 21122 21169 21179 26568 26569 26590 26691 26694
26538 7 21164 21165 25844 26589 26692 26693 26787
26539 10 21237 21238 21239 21255 25215 26332 26340 26454 26810 26812
26540 5 21238 21240 21255 26494 26814
26541 3 21241 26494 26825
26542 1 26826
26543 3 25575 26570 26821
26544 10 25355 25552 25576 25577 26504 26571 26628 26760 26793 26794
26545 5 25355 25555 25831 25846 26600
26546 4 25556 25848 25849 26510
26547 3 25883 26573 26634
26548 6 21173 21203 25355 25846 26573 26778
26549 5 25839 26515 26633 26676 26684
26550 2 25854 26676
26551 9 21203 25355 25851 25882 25883 26514 26573 26778 26779
26552 3 25883 26519 26765
26553 4 21142 24352 24426 26773
26554 7 25267 25857 25860 25862 26518 26529 26653
26555 4 25267 25862 25866 26529
26556 2 25885 26529
26557 6 25357 25562 25866 25868 25884 26529
26558 4 25357 25884 25885 26529
26559 4 25873 26577 26658 26780
26560 2 25874 26781
26561 4 26497 26499 26641 26833
26562 4 25838 25997 26652 26764
26563 2 25887 28371
26564 2 25887 28371
26565 4 24424 25887 25888 28371
26566 2 21177 26697
26567 3 21486 25876 28371
26568 7 21103 21165 21179 25844 25914 26537 26590
26569 4 21120 21124 21179 26537
26570 13 21127 25550 25551 25575 25576 26502 26543 26627 26645 26783 26790 26791 26821
26571 7 26544 26628 26634 26647 26648 26720 26760
26572 4 26631 26652 26711 27353
26573 14 21173 21200 21201 21203 25831 25846 25883 26514 26547 26548 26551 26600 26634 26673
26574 3 26631 26652 27353
26575 9 21140 21204 26519 26521 26522 26655 26685 26769 26834
26576 6 26532 26602 26654 26657 26679 26777
26577 7 25873 26534 26559 26658 26659 26660 28264
26578 5 21431 25959 26611 28254 28307
26579 3 26611 28254 28586
26580 3 21060 25895 26612
26581 3 21061 25895 26612
26582 5 21061 21062 25895 26613 26616
26583 5 21063 25903 26618 26619 28736
26584 8 25903 26619 26620 26621 26622 26623 28708 28736
26585 11 21064 25963 25964 25968 26624 26661 27331 27349 27443 28711 28737
26586 5 26606 26625 26662 27348 27445
26587 9 25842 26535 26607 26608 27440 27444 27446 28712 28738
26588 3 26636 26638 26724
26589 7 21117 26538 26690 26692 26693 26787 27526
26590 7 21165 26536 26537 26568 26689 26690 26691
26591 4 21150 21176 21379 26667
26592 1 21115
26593 1 21387
26594 5 21112 21114 21157 21385 21386
26595 2 21158 26604
26596 2 26605 27391
26597 7 21122 21169 21380 26688 26694 27392 27532
26598 2 25895 26616
26599 6 21063 25903 26614 26615 26617 27330
26600 4 25831 25846 26545 26573
26601 2 25869 26529
26602 8 25870 25887 25999 26530 26531 26532 26576 28371
26603 3 21086 21158 21166
26604 2 21158 26595
26605 4 21113 21168 26596 27391
26606 5 25842 26586 26607 26625 26662
26607 6 25842 26587 26606 26625 26662 27440
26608 2 25842 26587
26609 9 21087 21118 21154 21155 21213 25212 26668 26696 27389
26610 7 25371 25893 25896 25905 27484 28683 28746
26611 7 25901 25959 26003 26578 26579 28254 28586
26612 6 21060 21061 25895 26580 26581 28707
26613 4 21061 21062 26582 28707
26614 1 26599
26615 1 26599
26616 5 21062 25895 26582 26598 28707
26617 1 26599
26618 4 21063 26583 27438 28736
26619 4 25903 26583 26584 28736
26620 1 26584
26621 2 25903 26584
26622 1 26584
26623 1 26584
26624 3 25968 26007 26585
26625 7 25842 26586 26606 26607 26662 27440 27445
26626 1 26791
26627 8 26570 26629 26645 26648 26719 26720 26791 28259
26628 8 25576 26503 26544 26571 26720 26791 26792 26793
26629 7 26627 26646 26648 27339 27378 28259 28260
26630 7 21131 21132 26669 26681 27380 27381 28260
26631 4 26572 26574 26652 27353
26632 1 26676
26633 7 26515 26549 26674 26676 26684 26711 27383
26634 31 21133 21196 21198 21199 21202 25830 25831 25883 26504 26506 26507 26517 26547 26571 26573 26647 26648 26649 26651 26673 26675 26677 26681 26685 26760 26761 26762 26765 27344 27383 28260
26635 4 26529 26656 26678 27383
26636 3 21177 26588 26724
26637 5 21144 21467 26698 26741 28235
26638 11 21143 21174 21178 21485 21486 26588 26666 26724 26749 28234 28236
26639 7 21144 21145 21464 26666 26741 28235 28237
26640 4 21359 21483 26716 28296
26641 5 26561 26824 26832 26833 27120
26642 9 21241 26196 26495 26496 26498 26816 26824 26825 27120
26643 6 26197 26499 26753 26754 26826 26827
26644 4 26197 26347 26755 26827
26645 5 21127 26570 26627 26719 26783
26646 5 26629 26719 27339 28258 28259
26647 2 26571 26634
26648 7 26571 26627 26629 26634 26720 28259 28260
26649 1 26634
26650 1 21137
26651 10 21194 21195 21196 21197 21198 21199 26634 26681 27344 27383
26652 23 21065 21066 21067 21095 21135 21136 21137 25837 25838 25845 25994 25997 26508 26509 26511 26562 26572 26574 26631 26711 26764 27353 28307
26653 10 25853 25855 25856 26518 26529 26554 26676 26678 27345 27383
26654 2 26576 26777
26655 9 26522 26575 26685 26687 26699 26772 26822 28262 28373
26656 8 26525 26526 26527 26529 26635 26771 26775 27383
26657 3 26576 26679 26777
26658 7 25871 26533 26559 26577 26679 26780 28264
26659 2 26577 28264
26660 6 21177 26534 26577 26697 28264 28372
26661 3 25841 25964 26585
26662 6 25842 26586 26606 26607 26625 27348
26663 2 21177 26724
26664 3 21467 26698 28308
26665 2 21468 26741
26666 9 21145 21146 21174 21175 25912 26638 26639 28236 28237
26667 3 21150 21176 26591
26668 5 21113 21118 26609 26696 27391
26669 5 21132 26630 27378 27379 28260
26670 2 26682 26711
26671 5 26682 27338 27352 27377 27382
26672 2 26711 28307
26673 2 26573 26634
26674 7 21268 25847 25849 26510 26515 26633 26711
26675 2 26634 27383
26676 10 25839 25854 26516 26518 26549 26550 26632 26633 26653 27383
26677 4 26519 26634 26685 26765
26678 5 25858 26529 26635 26653 27383
26679 10 25871 25872 26532 26533 26576 26657 26658 26777 28264 28371
26680 2 27340 27382
26681 19 21182 21183 21184 21185 21186 21187 21188 21189 21190 21191 21192 21193 26630 26634 26651 27341 27381 27383 28260
26682 7 26670 26671 26711 27352 27377 27382 28307
26683 1 26711
26684 3 26515 26549 26633
26685 8 26519 26575 26634 26655 26677 26766 26770 27383
26686 1 26777
26687 5 26655 26772 26774 26776 28262
26688 3 21122 21169 26597
26689 12 21172 21235 21236 21265 26590 26690 26691 26694 27516 27528 27533 27543
26690 7 21117 21172 26536 26589 26590 26689 26692
26691 4 26537 26590 26689 26694
26692 5 21165 26536 26538 26589 26690
26693 3 26538 26589 26787
26694 9 21169 21254 21265 26537 26597 26689 26691 27532 27553
26695 4 21087 21167 21392 27389
26696 6 21093 21111 21113 21155 26609 26668
26697 6 21177 26566 26660 26724 26749 28264
26698 4 21467 26637 26664 28308
26699 28 21357 21450 21454 21455 26655 26739 26740 26796 26797 26802 26804 26822 26831 26836 26837 26838 26839 26840 26841 26842 28230 28232 28262 28265 28294 28295 28298 28308
26700 3 21456 26726 28248
26701 3 21230 21461 28248
26702 12 21459 21462 21471 25832 26715 26737 28241 28242 28243 28244 28245 28246
26703 3 21462 26712 28250
26704 3 21232 28267 28269
26705 5 26713 28250 28266 28268 28271
26706 5 21308 21441 26714 28270 28271
26707 3 21359 26716 28271
26708 2 21096 21137
26709 1 21137
26710 6 21098 21137 21138 21170 21391 26795
26711 24 21094 21095 21096 21134 21135 21137 21267 21268 21391 26572 26633 26652 26670 26672 26674 26682 26683 26736 26795 27342 27353 27382 27383 28307
26712 4 21462 21471 26703 28250
26713 3 21470 26705 28250
26714 3 26706 28270 28271
26715 2 25832 26702
26716 5 21359 26640 26707 28271 28296
26717 1 26734
26718 2 26466 26734
26719 9 21128 26627 26645 26646 26783 26786 26788 28258 28259
26720 5 26571 26627 26628 26648 26791
26721 10 26205 26466 26733 26734 26735 26756 26757 27017 27147 27148
26722 2 26759 26800
26723 9 26210 26758 26759 26789 26800 27162 27374 27376 28258
26724 7 21177 26588 26636 26638 26663 26697 26749
26725 7 21451 21463 26742 28239 28248 28295 28308
26726 6 21354 21456 26700 26839 28248 28299
26727 3 27365 27396 27404
26728 1 27404
26729 6 21220 21222 21223 26062 27401 27404
26730 3 27368 27369 28729
26731 2 21224 28729
26732 6 21225 21226 27372 27407 27408 28729
26733 6 26205 26296 26335 26467 26721 26757
26734 6 26466 26717 26718 26721 26756 27148
26735 3 26721 26756 26757
26736 1 26711
26737 6 21459 25832 26702 28238 28240 28241
26738 3 21457 25835 26831
26739 4 21450 21454 26699 26842
26740 8 21352 21353 21357 21450 21455 24279 25835 26699
26741 8 21144 21464 21467 21468 26637 26639 26665 26745
26742 7 21451 21458 21467 21469 26725 26745 28308
26743 3 21355 21439 21474
26744 3 21142 21457 24278
26745 6 21458 21464 21467 21468 26741 26742
26746 6 21439 21456 21473 21474 25810 26747
26747 7 21354 21456 25810 25829 26746 26830 26839
26748 2 21142 24278
26749 5 26638 26697 26724 28234 28264
26750 4 28233 28265 28294 28308
26751 2 26196 26816
26752 4 26196 26495 26816 26825
26753 3 26499 26643 26826
26754 4 25349 26643 26826 26827
26755 8 25349 26150 26347 26501 26644 26827 26828 26829
26756 3 26721 26734 26735
26757 8 20902 21309 21367 26296 26336 26721 26733 26735
26758 4 26210 26346 26723 26789
26759 8 26722 26723 26784 26785 26789 26799 26800 26801
26760 4 26504 26544 26571 26634
26761 1 26634
26762 5 26504 26505 26506 26634 26794
26763 2 21391 26795
26764 5 21067 25838 25997 26562 26652
26765 5 25883 26519 26552 26634 26677
26766 2 26685 27383
26767 2 25578 25883
26768 2 25386 25578
26769 9 24352 24420 25387 26519 26520 26522 26575 26834 26835
26770 1 26685
26771 2 26656 27383
26772 2 26655 26687
26773 7 21142 24352 26175 26522 26523 26553 26835
26774 1 26687
26775 1 26656
26776 1 26687
26777 5 26576 26654 26657 26679 26686
26778 4 21203 25355 26548 26551
26779 4 25355 25851 25882 26551
26780 6 25872 25873 26533 26559 26658 28371
26781 5 25874 25875 26534 26560 28371
26782 3 21126 26786 26788
26783 5 21127 26570 26645 26719 26786
26784 2 26759 26801
26785 5 26759 26799 26800 26801 28258
26786 11 21126 21127 21181 26502 26719 26782 26783 26788 26790 26819 26820
26787 12 21123 21164 21171 21429 21433 25844 26538 26589 26693 27526 27531 27545
26788 6 21125 26719 26782 26786 26819 28258
26789 7 26173 26346 26723 26758 26759 26801 28258
26790 4 21127 26502 26570 26786
26791 8 21129 25576 26503 26570 26626 26627 26628 26720
26792 2 25576 26628
26793 3 25576 26544 26628
26794 7 25355 25577 26504 26505 26506 26544 26762
26795 6 21137 21138 21391 26710 26711 26763
26796 5 21353 21357 26699 26803 26804
26797 5 21454 21465 25835 26699 26837
26798 3 21353 21358 26804
26799 2 26759 26785
26800 5 26722 26723 26759 26785 28258
26801 5 26759 26784 26785 26789 28258
26802 5 21452 21457 26699 26831 26840
26803 2 21353 26796
26804 6 21353 21358 26699 26796 26798 26839
26805 3 26262 26339 26449
26806 3 25214 26262 26449
26807 4 25214 26149 26263 26823
26808 3 26263 26330 26339
26809 3 26195 26330 26451
26810 4 26290 26340 26454 26539
26811 1 26340
26812 5 26331 26332 26340 26454 26539
26813 3 26196 26340 26494
26814 4 21238 21240 26340 26540
26815 2 26340 26494
26816 5 26196 26495 26642 26751 26752
26817 5 26197 26499 27011 27121 27122
26818 2 25352 26470
26819 4 21181 26786 26788 28258
26820 1 26786
26821 4 25575 26502 26543 26570
26822 5 21457 21466 26655 26699 26840
26823 5 25214 26263 26339 26449 26807
26824 5 26498 26641 26642 26833 27120
26825 8 21241 26196 26494 26495 26496 26541 26642 26752
26826 7 25349 26498 26499 26542 26643 26753 26754
26827 8 25349 26197 26500 26501 26643 26644 26754 26755
26828 1 26755
26829 3 26150 26347 26755
26830 4 21358 25829 26747 26839
26831 6 21457 25835 26699 26738 26802 26836
26832 2 26641 27120
26833 5 26498 26499 26561 26641 26824
26834 6 21140 26520 26521 26522 26575 26769
26835 6 21141 25387 26175 26522 26769 26773
26836 4 21465 25835 26699 26831
26837 3 21465 26699 26797
26838 3 21450 21455 26699
26839 9 21354 21358 26699 26726 26747 26804 26830 28295 28299
26840 5 21452 21466 26699 26802 26822
26841 2 21454 26699
26842 3 21450 26699 26739
26843 3 21906 22329 22330
26844 1 26899
26845 2 26867 26898
26846 13 21492 21494 21644 26866 26868 26870 26873 26874 26875 26892 26900 26909 26910
26847 3 26882 27681 27740
26848 4 26869 26876 26897 26898
26849 12 21494 26054 26055 26872 26875 26889 26890 26899 26905 26907 26913 26914
26850 13 21681 26054 26055 26867 26888 26889 26896 26898 26901 26902 26906 26907 26915
26851 1 26881
26852 6 21582 21638 21792 26877 26881 26891
26853 8 21644 26865 26878 26882 26912 27681 27807 27903
26854 1 26883
26855 12 21638 21672 21673 21675 21676 21681 26869 26891 26897 26898 26903 26904
26856 5 21644 26870 26878 26879 26880
26857 1 26884
26858 1 26887
26859 2 21797 26887
26860 12 21644 21720 21724 21795 21801 26871 26882 26885 26886 26887 26894 27688
26861 5 21718 21725 21797 21802 26887
26862 7 21577 21584 21587 21830 21832 26881 26883
26863 1 26884
26864 5 21576 21587 21639 26883 26884
26865 3 26853 27807 27903
26866 1 26846
26867 3 26845 26850 26898
26868 3 21492 26846 26892
26869 3 26848 26855 26897
26870 6 21644 26846 26856 26909 26910 26911
26871 5 26860 26882 27683 27688 27818
26872 1 26849
26873 2 26846 26900
26874 2 21492 26846
26875 3 21494 26846 26849
26876 4 21672 26848 26897 26898
26877 1 26852
26878 5 21644 26853 26856 26908 26912
26879 2 21644 26856
26880 2 21644 26856
26881 5 21577 21792 26851 26852 26862
26882 9 21644 26847 26853 26860 26871 27681 27683 27740 27811
26883 5 21584 21587 26854 26862 26864
26884 8 21541 21571 21576 21639 26857 26863 26864 27626
26885 1 26860
26886 1 26860
26887 12 21644 21724 21725 21760 21761 21797 21802 21806 26858 26859 26860 26861
26888 1 26850
26889 4 26055 26849 26850 26907
26890 3 21494 26055 26849
26891 4 21635 21638 26852 26855
26892 8 21492 21493 21494 21583 21644 21828 26846 26868
26893 10 21495 21496 21636 21644 21677 21678 21679 21680 21681 26055
26894 1 26860
26895 13 21491 21547 21548 21549 21751 21773 21780 27605 27665 27771 27787 27788 27858
26896 3 26850 26899 26906
26897 5 21672 26848 26855 26869 26876
26898 10 21672 21673 21675 21681 26845 26848 26850 26855 26867 26876
26899 5 26054 26844 26849 26896 26906
26900 4 21492 21494 26846 26873
26901 3 21681 26850 26902
26902 3 21681 26850 26901
26903 2 21681 26855
26904 4 21638 21674 21676 26855
26905 3 21494 26849 26914
26906 4 26054 26850 26896 26899
26907 5 26054 26849 26850 26889 26915
26908 1 26878
26909 2 26846 26870
26910 2 26846 26870
26911 1 26870
26912 2 26853 26878
26913 1 26849
26914 2 26849 26905
26915 2 26850 26907
26916 1 28487
26917 2 28488 28700
26918 3 28697 28699 28700
26919 1 28697
26920 1 26935
26921 1 26934
26922 1 26935
26923 3 23195 26934 28697
26924 1 26935
26925 2 23303 26935
26926 4 23195 26934 26936 26941
26927 3 23303 23377 26937
26928 4 23380 26938 26946 26962
26929 1 26938
26930 1 26941
26931 5 22787 23195 26943 26944 28697
26932 2 22811 23007
26933 9 22790 23380 23765 23767 26938 26939 26940 26941 26948
26934 4 23195 26921 26923 26926
26935 10 23101 23108 23299 23303 23361 23372 26920 26922 26924 26925
26936 2 23195 26926
26937 3 23303 23377 26927
26938 4 23380 26928 26929 26933
26939 4 23765 23767 26933 26964
26940 6 22790 23201 23243 23767 26933 26965
26941 10 22787 22790 23116 23195 23379 23382 23478 26926 26930 26933
26942 3 22781 28631 28696
26943 3 22787 23195 26931
26944 2 22787 26931
26945 2 23377 26954
26946 4 23471 26928 26953 26962
26947 11 22777 23085 23475 23527 23571 23669 23670 23760 26958 26959 26960
26948 16 23380 23476 23480 23528 23572 23667 23715 23730 23733 23765 23766 26933 26961 26962 26963 26964
26949 3 22770 23486 23529
26950 7 23491 23493 23542 23704 23720 23721 26973
26951 6 23492 23748 23775 26972 26973 26974
26952 5 23495 23546 23580 23753 26970
26953 2 23471 26946
26954 5 23239 23372 23377 23471 26945
26955 4 21921 21942 23115 23192
26956 3 23545 23704 23749
26957 6 23502 23545 23752 23756 23776 26974
26958 2 23670 26947
26959 2 22777 26947
26960 2 23670 26947
26961 4 23532 23763 23765 26948
26962 14 22768 22802 23301 23380 23471 23473 23675 23680 23730 23759 23766 26928 26946 26948
26963 4 23476 23572 23731 26948
26964 9 23532 23667 23683 23763 23765 23767 23780 26939 26948
26965 8 23243 23396 23678 23684 23726 23758 23767 26940
26966 5 23244 23481 23486 23734 23767
26967 6 23484 23574 23688 23734 23758 23771
26968 12 22791 22798 23315 23482 23485 23489 23534 23536 23538 23539 23735 23768
26969 9 23578 23689 23740 23742 23747 23772 23781 23782 26973
26970 8 22819 22820 23497 23546 23753 26952 26976 27929
26971 14 21968 23493 23541 23542 23573 23574 23575 23716 23717 23719 23720 23721 23771 26973
26972 9 23492 23530 23545 23577 23748 23749 23756 23775 26951
26973 18 23492 23530 23577 23578 23704 23717 23721 23740 23744 23749 23751 23755 23770 23774 26950 26951 26969 26971
26974 10 22957 23496 23750 23756 23757 23775 23776 26951 26957 27948
26975 5 23579 23693 23727 23751 23777
26976 13 23011 23219 23221 23352 23497 23547 23580 23695 23696 23723 23753 23754 26970
26977 3 27048 27172 28041
26978 6 26082 26416 27050 27173 27174 28042
26979 4 27049 27050 27174 28054
26980 5 26081 26129 27047 27048 27051
26981 1 27054
26982 5 26236 27052 27055 27175 28055
26983 5 20760 27055 27056 27057 27058
26984 4 27065 27068 27180 27182
26985 1 20705
26986 1 27066
26987 1 27066
26988 2 27065 27182
26989 7 20703 20705 27060 27068 27179 27180 27182
26990 1 27065
26991 2 26087 27185
26992 6 27066 27069 27070 27071 27186 27252
26993 2 26087 26419
26994 5 26087 27073 27074 27188 27314
26995 3 27082 27196 27322
26996 1 27257
26997 7 27082 27193 27196 27257 27261 27322 27325
26998 2 26285 27327
26999 2 27196 27327
27000 29 26087 26125 27074 27075 27076 27077 27078 27079 27080 27081 27083 27084 27085 27189 27190 27191 27192 27195 27196 27255 27257 27314 27316 27318 27319 27320 27321 27322 27328
27001 2 27086 27328
27002 1 27196
27003 3 27085 27195 27328
27004 1 27328
27005 2 27086 27328
27006 1 27110
27007 4 26146 27110 27259 27260
27008 2 27112 27261
27009 2 27112 27261
27010 3 27112 27261 27327
27011 3 26817 27121 27122
27012 9 26200 26397 27122 27123 27124 27125 27127 27128 27129
27013 4 26199 26200 26201 27129
27014 2 27139 27141
27015 15 26199 26201 26376 27129 27131 27132 27136 27137 27138 27139 27140 27141 27143 27144 27147
27016 2 26389 27147
27017 4 26721 27147 27452 27454
27018 1 21312
27019 1 21313
27020 2 21311 21312
27021 1 21315
27022 2 21317 21416
27023 1 27156
27024 2 26209 27156
27025 1 27156
27026 1 27156
27027 2 26209 27158
27028 1 27159
27029 1 27159
27030 1 27159
27031 1 27373
27032 2 27163 27373
27033 1 27163
27034 8 26345 26383 27158 27161 27162 27163 27373 27376
27035 10 21286 21317 27154 27156 27157 27158 27159 27160 27337 27375
27036 3 27163 27335 27376
27037 1 28035
27038 2 26116 28034
27039 3 20783 21020 28582
27040 9 20698 20740 20782 20783 21018 21020 28582 28701 28751
27041 4 20738 28581 28701 28751
27042 4 20700 20836 27168 28033
27043 3 20700 27168 28701
27044 8 20741 26073 26075 26081 26121 26407 26408 26411
27045 1 28701
27046 1 26081
27047 2 26081 26980
27048 10 26078 26081 26129 26176 26413 26414 26415 26977 26980 27172
27049 2 26979 27174
27050 3 26978 26979 27174
27051 1 26980
27052 1 26982
27053 1 27175
27054 1 26981
27055 6 20760 26237 26982 26983 27175 27176
27056 2 20760 26983
27057 2 20976 26983
27058 1 26983
27059 4 20768 20789 27177 27178
27060 4 20703 20705 20789 26989
27061 1 27062
27062 3 27061 28058 28178
27063 3 26132 27181 28057
27064 3 20792 26085 28059
27065 4 26984 26988 26990 27182
27066 4 26986 26987 26992 27186
27067 3 26249 27181 27183
27068 4 26984 26989 27180 27182
27069 5 26084 26250 26992 27183 27252
27070 1 26992
27071 1 26992
27072 1 26085
27073 3 26087 26994 27185
27074 3 26994 27000 27314
27075 1 27000
27076 1 27000
27077 2 27000 27321
27078 2 27000 27321
27079 2 27000 27257
27080 2 27000 27192
27081 1 27000
27082 4 26995 26997 27196 27322
27083 1 27000
27084 1 27000
27085 4 27000 27003 27195 27196
27086 3 27001 27005 27328
27087 2 20941 27207
27088 2 27207 27288
27089 1 27213
27090 1 27394
27091 7 26280 27220 27263 27264 27295 27296 27393
27092 9 20955 20956 27221 27224 27226 27228 27268 27297 27298
27093 2 20957 27229
27094 6 27232 27266 27267 27269 27271 27302
27095 5 27232 27265 27266 27301 27302
27096 3 27230 27231 27304
27097 6 27233 27275 27276 27303 27304 27307
27098 5 27235 27274 27302 27305 27306
27099 3 27233 27237 27309
27100 1 27278
27101 3 27240 27308 27311
27102 4 20727 26108 27243 27244
27103 3 20727 20812 26061
27104 1 27167
27105 3 20728 27165 28706
27106 8 20729 27241 27242 27245 27247 27250 27282 27283
27107 3 20815 26061 27421
27108 6 21221 21244 27251 27283 27402 27423
27109 21 27197 27198 27199 27200 27201 27239 27245 27246 27248 27249 27251 27277 27278 27279 27280 27281 27283 27310 27312 27313 27371
27110 11 26188 26218 26281 26314 26315 26317 26374 27006 27007 27259 27260
27111 4 26190 26282 26283 26317
27112 6 26285 27008 27009 27010 27261 27327
27113 3 26193 26284 26286
27114 1 26287
27115 3 26194 26286 26287
27116 4 26195 26287 26327 26330
27117 2 26330 26450
27118 1 26330
27119 3 26289 26328 26452
27120 10 26196 26287 26288 26327 26329 26330 26641 26642 26824 26832
27121 3 26499 26817 27011
27122 5 26197 26395 26817 27011 27012
27123 1 27012
27124 4 26198 26395 26397 27012
27125 2 26397 27012
27126 2 26385 26397
27127 3 26200 26385 27012
27128 2 26200 27012
27129 5 26199 26200 27012 27013 27015
27130 1 26387
27131 1 27015
27132 4 26200 26201 26387 27015
27133 1 26387
27134 3 26202 26351 26387
27135 3 26351 26388 26461
27136 2 26351 27015
27137 1 27015
27138 1 27015
27139 4 26375 26388 27014 27015
27140 1 27015
27141 2 27014 27015
27142 3 26377 26388 26480
27143 1 27015
27144 4 26203 26377 26389 27015
27145 5 26204 26391 26401 26402 26462
27146 1 26390
27147 11 26205 26352 26389 26390 26391 26464 26721 27015 27016 27017 27454
27148 3 26466 26721 26734
27149 1 21314
27150 1 21314
27151 1 26206
27152 3 21278 21372 21413
27153 2 21314 21372
27154 4 26206 26209 26381 27035
27155 3 21371 21372 21415
27156 6 26209 27023 27024 27025 27026 27035
27157 6 21286 21291 21345 21417 27035 27375
27158 7 26209 26344 26345 26394 27027 27034 27035
27159 4 27028 27029 27030 27035
27160 1 27035
27161 1 27034
27162 5 26210 26383 26723 27034 27376
27163 6 27032 27033 27034 27036 27373 27376
27164 3 27213 27263 27292
27165 2 20728 27105
27166 1 28705
27167 3 27104 27404 28705
27168 3 20700 27042 27043
27169 4 20699 20700 21022 28701
27170 2 20700 28701
27171 2 28581 28701
27172 7 26076 26077 26413 26437 26977 27048 28041
27173 2 26082 26978
27174 12 20635 20636 21025 26082 26131 26417 26438 26978 26979 27049 27050 28054
27175 6 21027 26236 26237 26982 27053 27055
27176 3 20764 26237 27055
27177 3 20706 20768 27059
27178 3 20706 20764 27059
27179 2 20703 26989
27180 6 20703 20764 26984 26989 27068 27182
27181 5 20766 26132 26249 27063 27067
27182 6 26984 26988 26989 27065 27068 27180
27183 5 26249 26250 26297 27067 27069
27184 1 26085
27185 3 26087 26991 27073
27186 10 20717 20770 20791 20983 20984 26251 26253 26992 27066 27252
27187 1 26087
27188 3 26087 26994 27314
27189 2 26087 27000
27190 6 26087 26137 26247 26423 27000 27321
27191 1 27000
27192 2 27000 27080
27193 3 26997 27257 27325
27194 1 27261
27195 4 27000 27003 27085 27328
27196 10 26995 26997 26999 27000 27002 27082 27085 27261 27322 27327
27197 1 27109
27198 1 27109
27199 1 27109
27200 1 27109
27201 1 27109
27202 1 28368
27203 2 20919 28368
27204 4 27913 27916 27917 28360
27205 2 20664 20919
27206 1 20942
27207 5 20311 20941 27087 27088 27288
27208 1 20665
27209 1 27285
27210 2 20950 27287
27211 3 20945 27289 27290
27212 2 20945 27291
27213 7 20945 26279 27089 27164 27263 27291 27292
27214 2 20940 20948
27215 4 20939 20940 20948 28186
27216 2 20948 27293
27217 1 20948
27218 2 20949 20953
27219 1 20953
27220 9 20947 26279 26280 27091 27263 27264 27294 27296 28185
27221 1 27092
27222 1 27299
27223 1 20953
27224 3 20954 20955 27092
27225 1 20956
27226 2 20956 27092
27227 2 20956 27270
27228 3 20956 27092 27270
27229 5 20953 20957 25403 26213 27093
27230 1 27096
27231 2 27096 27304
27232 4 27094 27095 27266 27302
27233 3 27097 27099 27307
27234 6 20719 20720 20808 26057 26058 26226
27235 1 27098
27236 2 20809 26107
27237 1 27099
27238 3 20809 20810 26107
27239 2 27109 27278
27240 21 20721 20722 20723 20725 20808 20810 20957 20959 25403 25404 26059 26107 26214 26215 26216 26224 26225 27101 27272 27273 27308
27241 1 27106
27242 1 27106
27243 3 20727 26108 27102
27244 2 20727 27102
27245 4 27106 27109 27281 27283
27246 1 27109
27247 1 27106
27248 1 27109
27249 1 27109
27250 4 20729 27106 27282 27283
27251 8 21244 27108 27109 27283 27371 27397 27406 27419
27252 6 26084 26250 26253 26992 27069 27186
27253 2 28063 28180
27254 1 28180
27255 5 26093 26125 26257 27000 27315
27256 7 26142 26143 26146 26185 26374 28065 28180
27257 17 20843 26093 26125 26144 26996 26997 27000 27079 27193 27317 27318 27320 27322 27325 28060 28064 28181
27258 1 26146
27259 5 26146 27007 27110 27323 27324
27260 4 26146 26374 27007 27110
27261 9 26997 27008 27009 27010 27112 27194 27196 27326 27327
27262 1 27263
27263 8 26279 26280 27091 27164 27213 27220 27262 27295
27264 2 27091 27220
27265 1 27095
27266 3 27094 27095 27232
27267 1 27094
27268 1 27092
27269 1 27094
27270 3 20956 27227 27228
27271 1 27094
27272 2 20957 27240
27273 2 27240 27308
27274 1 27098
27275 1 27097
27276 1 27097
27277 1 27109
27278 3 27100 27109 27239
27279 1 27109
27280 1 27109
27281 2 27109 27245
27282 2 27106 27250
27283 6 27106 27108 27109 27245 27250 27251
27284 2 20297 20311
27285 1 27209
27286 1 20950
27287 1 27210
27288 2 27088 27207
27289 3 20943 20945 27211
27290 2 20945 27211
27291 3 20945 27212 27213
27292 2 27164 27213
27293 2 20948 27216
27294 1 27220
27295 3 27091 27263 27393
27296 2 27091 27220
27297 1 27092
27298 1 27092
27299 1 27222
27300 1 20955
27301 1 27095
27302 4 27094 27095 27098 27232
27303 1 27097
27304 3 27096 27097 27231
27305 1 27098
27306 1 27098
27307 2 27097 27233
27308 4 26225 27101 27240 27273
27309 1 27099
27310 1 27109
27311 1 27101
27312 1 27109
27313 1 27109
27314 5 26087 26994 27000 27074 27188
27315 2 26257 27255
27316 2 26125 27000
27317 2 26125 27257
27318 3 26125 27000 27257
27319 1 27000
27320 2 27000 27257
27321 4 27000 27077 27078 27190
27322 6 26995 26997 27000 27082 27196 27257
27323 2 26146 27259
27324 1 27259
27325 3 26997 27193 27257
27326 1 27261
27327 7 26285 26998 26999 27010 27112 27196 27261
27328 7 27000 27001 27003 27004 27005 27086 27195
27329 4 25727 28558 28561 28565
27330 2 21063 26599
27331 1 26585
27332 1 27445
27333 3 27442 28692 28738
27334 1 28738
27335 2 27036 27376
27336 1 27376
27337 4 27035 27375 27377 28307
27338 3 26671 27377 27382
27339 5 26629 26646 27376 27378 28258
27340 2 26680 27382
27341 3 21193 26681 27383
27342 3 26711 27382 27383
27343 1 27383
27344 4 21194 26634 26651 27383
27345 2 26653 27383
27346 1 27383
27347 1 27383
27348 3 26586 26662 27445
27349 2 26585 27443
27350 1 27445
27351 3 21116 21152 27355
27352 3 26671 26682 27377
27353 6 26572 26574 26631 26652 26711 28307
27354 1 21360
27355 3 21116 21361 27351
27356 3 21159 21363 21388
27357 4 21089 21153 21160 21389
27358 2 25927 27489
27359 1 27389
27360 1 21213
27361 7 27450 27451 27462 28741 28742 28743 28745
27362 2 27451 28742
27363 1 27423
27364 2 27402 27423
27365 8 20815 26727 27396 27404 27421 27422 27426 27428
27366 1 27404
27367 1 27407
27368 2 26730 28729
27369 5 21224 21225 26730 27407 28729
27370 1 28729
27371 7 21248 27109 27251 27406 27419 27425 27430
27372 6 26732 27408 27434 28715 28729 28730
27373 4 27031 27032 27034 27163
27374 1 26723
27375 14 21291 21320 21322 21323 21374 21375 21418 21420 21422 27035 27157 27337 28297 28307
27376 9 26723 27034 27036 27162 27163 27335 27336 27339 28258
27377 6 26671 26682 27337 27338 27352 28307
27378 4 26629 26669 27339 28260
27379 2 21132 26669
27380 4 21130 21131 21132 26630
27381 2 26630 26681
27382 7 26671 26680 26682 26711 27338 27340 27342
27383 23 21192 21193 26633 26634 26635 26651 26653 26656 26675 26676 26678 26681 26685 26711 26766 26771 27341 27342 27343 27344 27345 27346 27347
27384 5 21435 21476 27410 27436 27794
27385 4 21435 27410 27436 27795
27386 4 27411 27413 27418 27795
27387 7 21053 21057 21364 27411 27418 27555 27559
27388 4 27424 28722 28725 28726
27389 6 21087 21213 21392 26609 26695 27359
27390 1 21213
27391 8 21113 21118 21213 21234 26596 26605 26668 27490
27392 5 26597 27491 27496 27532 27540
27393 2 27091 27295
27394 1 27090
27395 2 26062 26063
27396 5 20732 20815 26727 27365 28674
27397 2 21244 27251
27398 3 21222 26062 28705
27399 1 28722
27400 1 21222
27401 2 21223 26729
27402 6 21221 21244 27108 27364 27423 27427
27403 1 21247
27404 9 21222 21223 26727 26728 26729 27167 27365 27366 27428
27405 1 21247
27406 10 21245 21246 21247 21248 27251 27371 27419 27425 27429 27431
27407 7 21225 21226 26732 27367 27369 27432 27433
27408 5 21226 26732 27372 27433 27434
27409 12 21393 21427 21430 27414 27415 27416 27417 27447 27453 27456 27458 28745
27410 5 21435 27384 27385 27436 27794
27411 10 21056 21057 21058 21364 21435 27386 27387 27418 27795 28328
27412 3 27436 27554 27795
27413 4 27386 27418 27555 27795
27414 3 27409 27453 28745
27415 1 27409
27416 12 21207 21209 21278 21279 21321 21425 21426 27409 27417 27448 27458 27459
27417 5 21425 21427 27409 27416 27457
27418 5 27386 27387 27411 27413 27555
27419 3 27251 27371 27406
27420 2 28720 28726
27421 3 20815 27107 27365
27422 1 27365
27423 5 21221 27108 27363 27364 27402
27424 2 27388 28726
27425 3 21245 27371 27406
27426 1 27365
27427 1 27402
27428 2 27365 27404
27429 1 27406
27430 1 27371
27431 1 27406
27432 1 27407
27433 3 21226 27407 27408
27434 4 27372 27408 28719 28730
27435 1 28719
27436 7 27384 27385 27410 27412 27554 27794 27795
27437 2 28707 28735
27438 3 21063 26618 28736
27439 2 27443 28711
27440 6 26587 26607 26625 27444 27445 28712
27441 4 27445 28711 28712 28748
27442 3 27333 28692 28738
27443 4 26585 27349 27439 28711
27444 3 26587 27440 28712
27445 9 26586 26625 27332 27348 27350 27440 27441 28711 28712
27446 2 26587 28712
27447 3 27409 27456 27458
27448 2 21426 27416
27449 2 21426 21428
27450 2 27361 27462
27451 11 21206 21207 21210 21211 21214 21426 21428 27361 27362 27462 28742
27452 1 27017
27453 2 27409 27414
27454 2 27017 27147
27455 1 21424
27456 3 21393 27409 27447
27457 3 21425 21427 27417
27458 3 27409 27416 27447
27459 2 21425 27416
27460 1 28741
27461 1 28741
27462 4 21428 27361 27450 27451
27463 2 25922 25970
27464 3 25925 27474 27475
27465 2 25923 27477
27466 2 25924 27476
27467 3 25965 25970 27477
27468 2 25965 25966
27469 4 25961 26005 28687 28688
27470 1 25962
27471 1 25967
27472 2 25877 25967
27473 2 25877 25962
27474 2 25925 27464
27475 1 27464
27476 1 27466
27477 3 25965 27465 27467
27478 1 28687
27479 2 25966 25967
27480 4 25877 25961 25962 27485
27481 1 25961
27482 2 25961 27487
27483 1 25967
27484 4 25905 26610 28688 28746
27485 3 25961 25962 27480
27486 1 25961
27487 2 25961 27482
27488 1 25961
27489 2 25927 27358
27490 2 21213 27391
27491 1 27392
27492 2 27541 27544
27493 2 27540 27544
27494 1 27541
27495 1 27540
27496 3 27392 27522 27540
27497 1 27541
27498 3 27541 27542 27547
27499 1 27522
27500 1 27541
27501 3 27510 27538 27542
27502 2 27536 27538
27503 1 27536
27504 2 27536 27551
27505 2 27537 27551
27506 2 27559 27808
27507 4 27515 27559 27560 27808
27508 1 28328
27509 1 28328
27510 6 27501 27518 27532 27538 27542 27546
27511 1 27517
27512 1 28335
27513 1 28335
27514 22 27518 27520 27521 27531 27535 27537 27545 27548 27549 27550 27552 27606 27690 28329 28330 28331 28332 28333 28334 28336 28338 28339
27515 4 27507 27560 27808 27892
27516 5 26689 27518 27528 27533 27546
27517 6 27511 27534 27555 27559 27797 27903
27518 10 27510 27514 27516 27528 27535 27536 27537 27538 27546 27551
27519 2 27525 27545
27520 4 27514 27528 27535 27545
27521 6 27514 27531 27545 27548 27549 27550
27522 2 27496 27499
27523 3 21123 21171 27545
27524 2 21123 27545
27525 4 21121 21123 27519 27545
27526 5 21117 21171 26589 26787 27545
27527 2 21172 27545
27528 8 21235 26689 27516 27518 27520 27535 27543 27545
27529 1 28328
27530 1 28328
27531 8 21123 21429 26787 27514 27521 27545 27552 28328
27532 12 26597 26694 27392 27510 27539 27540 27541 27542 27544 27546 27547 27553
27533 5 21236 26689 27516 27546 27553
27534 4 27517 27554 27555 27795
27535 4 27514 27518 27520 27528
27536 6 27502 27503 27504 27518 27538 27551
27537 8 27505 27514 27518 27551 27606 27607 27608 27764
27538 5 27501 27502 27510 27518 27536
27539 2 27532 27544
27540 6 27392 27493 27495 27496 27532 27544
27541 8 27492 27494 27497 27498 27500 27532 27544 27547
27542 5 27498 27501 27510 27532 27547
27543 3 21235 26689 27528
27544 6 27492 27493 27532 27539 27540 27541
27545 18 21117 21121 21123 21171 21172 21235 26787 27514 27519 27520 27521 27523 27524 27525 27526 27527 27528 27531
27546 6 27510 27516 27518 27532 27533 27553
27547 4 27498 27532 27541 27542
27548 2 27514 27521
27549 2 27514 27521
27550 2 27514 27521
27551 5 27504 27505 27518 27536 27537
27552 2 27514 27531
27553 7 21236 21254 21265 26694 27532 27533 27546
27554 4 27412 27436 27534 27795
27555 7 27387 27413 27418 27517 27534 27559 27795
27556 16 21054 21364 27558 27691 27720 27728 27757 27758 27759 27760 27761 27766 27798 27808 28328 28335
27557 21 27559 27696 27699 27701 27702 27711 27721 27722 27726 27729 27730 27731 27740 27808 27812 27890 27893 27894 27896 27898 27903
27558 3 27556 27757 27808
27559 11 21364 27387 27506 27507 27517 27555 27557 27796 27797 27808 27903
27560 3 27507 27515 27808
27561 3 27612 27614 27902
27562 10 27615 27616 27617 27618 27619 27707 27860 27861 27863 27864
27563 1 27707
27564 2 27621 27707
27565 1 27621
27566 3 27622 27623 27686
27567 5 27629 27630 27631 27634 27818
27568 2 27634 27788
27569 3 27605 27638 27788
27570 1 27643
27571 1 27645
27572 5 21668 21669 21670 27647 27649
27573 2 21670 27651
27574 2 27773 27843
27575 2 27772 27871
27576 4 27773 27842 27843 27871
27577 4 27773 27843 27844 27871
27578 1 27789
27579 1 27789
27580 2 27792 28344
27581 2 27671 28344
27582 2 27671 28344
27583 3 27645 27789 27790
27584 9 27644 27773 27775 27844 27847 27871 27872 27873 28344
27585 2 21634 27855
27586 2 21634 27855
27587 1 27790
27588 1 27645
27589 3 21756 27792 27850
27590 3 27645 27649 27791
27591 1 27671
27592 1 27792
27593 2 27645 27790
27594 8 27644 27670 27853 27854 27873 27874 27875 28344
27595 1 27792
27596 1 27792
27597 1 27645
27598 1 27792
27599 1 27792
27600 7 27648 27670 27875 27876 27877 27878 28344
27601 1 27792
27602 7 27648 27652 27671 27856 27879 27880 28344
27603 7 27652 27657 27671 27856 27857 27881 27882
27604 7 21659 27657 27778 27779 27792 27857 27859
27605 12 21491 21751 21753 26895 27569 27638 27640 27641 27667 27788 27858 27870
27606 2 27514 27537
27607 1 27537
27608 2 27537 27764
27609 1 27764
27610 2 27692 27902
27611 1 27902
27612 2 27561 27902
27613 2 27735 27900
27614 3 27561 27802 27902
27615 1 27562
27616 3 27562 27861 27863
27617 6 27562 27733 27735 27860 27861 27863
27618 5 27562 27735 27862 27863 27864
27619 4 27562 27707 27735 27864
27620 3 27706 27707 27735
27621 11 27564 27565 27705 27706 27707 27711 27808 27809 27865 27866 27867
27622 7 27566 27682 27686 27711 27741 27812 27813
27623 2 27566 27686
27624 1 27686
27625 2 27687 27742
27626 2 21541 26884
27627 4 21541 21593 21662 28340
27628 2 21593 27886
27629 1 27567
27630 4 27567 27742 27785 27818
27631 1 27567
27632 1 27887
27633 6 21593 21594 27786 27869 28341 28346
27634 6 27567 27568 27756 27771 27788 27818
27635 7 21623 27664 27672 27750 27770 27771 27787
27636 5 27750 27752 27755 27830 27832
27637 1 27672
27638 3 27569 27605 27788
27639 4 27755 27789 27835 27836
27640 6 27605 27665 27666 27667 27672 27858
27641 2 27605 27788
27642 1 27789
27643 2 27570 27789
27644 4 27584 27594 27873 28344
27645 10 27571 27583 27588 27590 27593 27597 27676 27789 27790 27791
27646 1 27678
27647 2 21668 27572
27648 3 27600 27602 28344
27649 8 21669 21670 27572 27590 27677 27678 27791 27792
27650 1 21659
27651 2 21671 27573
27652 4 27602 27603 27856 27880
27653 1 21659
27654 2 21659 27792
27655 1 21659
27656 1 21659
27657 9 27603 27604 27778 27857 27859 27882 27883 27884 27885
27658 1 27903
27659 2 27771 27819
27660 1 27771
27661 1 27771
27662 1 27771
27663 1 27771
27664 5 21623 27635 27771 27787 27829
27665 6 26895 27640 27666 27672 27787 27858
27666 3 27640 27665 27858
27667 3 27605 27640 27858
27668 6 21694 21695 21783 27774 27777 27791
27669 3 21634 27792 27855
27670 7 27594 27600 27673 27674 27675 27875 28344
27671 8 27581 27582 27591 27602 27603 27856 27857 28344
27672 5 27635 27637 27640 27665 27787
27673 2 27670 28344
27674 1 27670
27675 1 27670
27676 2 27645 27791
27677 3 27649 27791 27792
27678 2 27646 27649
27679 1 27805
27680 6 27709 27736 27739 27740 27804 27812
27681 7 26847 26853 26882 27740 27805 27807 27811
27682 3 27622 27711 27738
27683 4 26871 26882 27740 27818
27684 1 27818
27685 1 27818
27686 11 27566 27622 27623 27624 27708 27712 27713 27715 27739 27812 27816
27687 4 27625 27716 27742 27816
27688 11 21590 21720 21796 21799 26860 26871 27718 27756 27782 27817 27818
27689 3 27728 27889 28335
27690 2 27514 28339
27691 2 27556 27808
27692 2 27610 27902
27693 2 27732 27800
27694 5 27727 27728 27732 27800 27801
27695 1 27740
27696 2 27557 27896
27697 4 27732 27802 27895 27900
27698 1 27900
27699 2 27557 27808
27700 4 27732 27735 27803 27900
27701 2 27557 27812
27702 2 27557 27812
27703 2 27740 27812
27704 3 27740 27812 27901
27705 3 27621 27737 27809
27706 13 27620 27621 27732 27734 27735 27803 27806 27808 27865 27866 27867 27897 27899
27707 7 27562 27563 27564 27619 27620 27621 27735
27708 3 27686 27739 27812
27709 6 27680 27736 27739 27740 27767 27818
27710 1 27740
27711 12 27557 27621 27622 27682 27737 27738 27741 27808 27809 27810 27812 27813
27712 6 27686 27739 27742 27814 27816 27818
27713 1 27686
27714 3 27742 27783 27815
27715 2 27686 27816
27716 3 27687 27742 27816
27717 3 27742 27783 27818
27718 3 27688 27782 27818
27719 4 27742 27784 27785 27818
27720 4 27556 27758 27766 28335
27721 2 27557 27808
27722 2 27557 27893
27723 2 27808 27899
27724 2 27808 27899
27725 2 27765 27800
27726 2 27557 27893
27727 2 27694 27801
27728 13 27556 27689 27694 27765 27798 27800 27801 27808 27889 27899 27902 28335 28337
27729 4 27557 27812 27893 27896
27730 1 27557
27731 3 27557 27812 27896
27732 14 27693 27694 27697 27700 27706 27765 27800 27801 27802 27803 27895 27899 27900 27902
27733 2 27617 27860
27734 1 27706
27735 13 27613 27617 27618 27619 27620 27700 27706 27707 27803 27806 27863 27864 27900
27736 3 27680 27709 27767
27737 3 27705 27711 27809
27738 2 27682 27711
27739 7 27680 27686 27708 27709 27712 27812 27818
27740 20 26847 26882 27557 27680 27681 27683 27695 27703 27704 27709 27710 27804 27805 27807 27812 27818 27891 27893 27901 27903
27741 3 27622 27711 27813
27742 14 27625 27630 27687 27712 27714 27716 27717 27719 27783 27785 27814 27815 27816 27818
27743 2 27753 27836
27744 2 27753 27836
27745 5 21573 21723 21761 21806 27771
27746 2 27754 27836
27747 3 21575 27771 27827
27748 3 21564 21813 27836
27749 1 27836
27750 7 21575 27635 27636 27771 27827 27830 27832
27751 4 27755 27828 27833 27836
27752 3 27636 27755 27832
27753 4 27743 27744 27789 27836
27754 4 21603 21784 27746 27836
27755 12 21784 27636 27639 27751 27752 27826 27831 27832 27833 27834 27835 27836
27756 13 21578 21588 21589 21590 21591 21736 21799 27634 27688 27771 27817 27818 27819
27757 2 27556 27558
27758 3 27556 27720 28335
27759 2 27556 28335
27760 2 27556 28335
27761 3 27556 27808 27888
27762 2 27799 27899
27763 2 27799 27899
27764 3 27537 27608 27609
27765 5 27725 27728 27732 27800 27899
27766 2 27556 27720
27767 2 27709 27736
27768 2 21541 21661
27769 2 21593 27886
27770 2 21623 27635
27771 32 21509 21542 21543 21544 21573 21575 21623 21724 21725 21759 21761 21780 21806 26895 27634 27635 27659 27660 27661 27662 27663 27664 27745 27747 27750 27756 27787 27788 27819 27820 27824 27827
27772 4 27575 27842 27871 28344
27773 8 27574 27576 27577 27584 27842 27843 27844 28344
27774 2 21783 27668
27775 2 27584 28344
27776 2 21693 27789
27777 2 27668 27791
27778 3 27604 27657 27859
27779 2 27604 27859
27780 1 27818
27781 1 27818
27782 3 27688 27718 27818
27783 5 27714 27717 27742 27815 27818
27784 2 27719 27818
27785 4 27630 27719 27742 27818
27786 2 21594 27633
27787 8 21774 21780 26895 27635 27664 27665 27672 27771
27788 12 21491 21547 21548 21549 26895 27568 27569 27605 27634 27638 27641 27771
27789 22 21502 21565 21630 21693 21750 27578 27579 27583 27639 27642 27643 27645 27753 27776 27793 27836 27837 27838 27839 27840 27841 27846
27790 4 27583 27587 27593 27645
27791 10 21504 21695 21783 27590 27645 27649 27668 27676 27677 27777
27792 24 21632 21634 21659 21734 21756 21782 27580 27589 27592 27595 27596 27598 27599 27601 27604 27649 27654 27669 27677 27845 27850 27855 27857 28344
27793 4 27789 27839 27840 27841
27794 3 27384 27410 27436
27795 10 21435 27385 27386 27411 27412 27413 27436 27534 27554 27555
27796 1 27559
27797 3 27517 27559 27903
27798 3 27556 27728 28335
27799 3 27762 27763 27899
27800 6 27693 27694 27725 27728 27732 27765
27801 5 27694 27727 27728 27732 27902
27802 6 27614 27697 27732 27895 27900 27902
27803 4 27700 27706 27732 27735
27804 2 27680 27740
27805 3 27679 27681 27740
27806 2 27706 27735
27807 5 26853 26865 27681 27740 27903
27808 24 21364 27506 27507 27515 27556 27557 27558 27559 27560 27621 27691 27699 27706 27711 27721 27723 27724 27728 27761 27888 27890 27892 27898 27899
27809 4 27621 27705 27711 27737
27810 1 27711
27811 2 26882 27681
27812 17 27557 27622 27680 27686 27701 27702 27703 27704 27708 27711 27729 27731 27739 27740 27893 27896 27901
27813 3 27622 27711 27741
27814 2 27712 27742
27815 3 27714 27742 27783
27816 6 27686 27687 27712 27715 27716 27742
27817 4 21589 21590 27688 27756
27818 23 26871 27567 27630 27634 27683 27684 27685 27688 27709 27712 27717 27718 27719 27739 27740 27742 27756 27780 27781 27782 27783 27784 27785
27819 13 21542 21572 21721 21722 21724 21737 21798 21799 21800 21801 27659 27756 27771
27820 3 21509 21543 27771
27821 1 21765
27822 2 21725 21765
27823 2 21725 21784
27824 6 21509 21543 21544 21575 21725 27771
27825 2 21575 21725
27826 1 27755
27827 4 21575 27747 27750 27771
27828 1 27751
27829 2 21623 27664
27830 2 27636 27750
27831 1 27755
27832 5 21784 27636 27750 27752 27755
27833 2 27751 27755
27834 1 27755
27835 2 27639 27755
27836 22 21545 21546 21564 21565 21574 21603 21784 21811 21812 21813 21814 27639 27743 27744 27746 27748 27749 27751 27753 27754 27755 27789
27837 1 27789
27838 1 27789
27839 2 27789 27793
27840 2 27789 27793
27841 2 27789 27793
27842 5 27576 27772 27773 27871 28344
27843 5 27574 27576 27577 27773 27871
27844 4 27577 27584 27773 27871
27845 3 21734 21819 27792
27846 1 27789
27847 1 27584
27848 2 21634 21827
27849 1 21634
27850 4 21632 21820 27589 27792
27851 1 21634
27852 2 21634 21758
27853 2 27594 27875
27854 2 27594 27875
27855 9 21633 21634 21782 21791 21826 27585 27586 27669 27792
27856 4 27602 27603 27652 27671
27857 6 27603 27604 27657 27671 27792 28344
27858 6 26895 27605 27640 27665 27666 27667
27859 4 27604 27657 27778 27779
27860 3 27562 27617 27733
27861 3 27562 27616 27617
27862 1 27618
27863 5 27562 27616 27617 27618 27735
27864 4 27562 27618 27619 27735
27865 2 27621 27706
27866 2 27621 27706
27867 2 27621 27706
27868 1 21593
27869 4 21596 27633 28341 28347
27870 3 21753 21781 27605
27871 17 21713 21727 21746 21785 21836 21837 21838 27575 27576 27577 27584 27772 27842 27843 27844 28341 28344
27872 1 27584
27873 3 27584 27594 27644
27874 1 27594
27875 5 27594 27600 27670 27853 27854
27876 1 27600
27877 1 27600
27878 1 27600
27879 1 27602
27880 2 27602 27652
27881 1 27603
27882 2 27603 27657
27883 1 27657
27884 1 27657
27885 1 27657
27886 3 21593 27628 27769
27887 2 21593 27632
27888 2 27761 27808
27889 3 27689 27728 28335
27890 2 27557 27808
27891 2 27740 27903
27892 2 27515 27808
27893 6 27557 27722 27726 27729 27740 27812
27894 1 27557
27895 3 27697 27732 27802
27896 5 27557 27696 27729 27731 27812
27897 1 27706
27898 2 27557 27808
27899 10 27706 27723 27724 27728 27732 27762 27763 27765 27799 27808
27900 7 27613 27697 27698 27700 27732 27735 27802
27901 3 27704 27740 27812
27902 11 27561 27610 27611 27612 27614 27692 27728 27732 27801 27802 28337
27903 10 26853 26865 27517 27557 27559 27658 27740 27797 27807 27891
27904 6 20287 20298 20313 28369 28573 28752
27905 6 20282 20294 20300 20321 20328 28758
27906 2 20332 28575
27907 3 20338 20920 28575
27908 1 20301
27909 3 20301 20304 28366
27910 1 20310
27911 1 28360
27912 1 20305
27913 5 20303 20307 27204 28359 28360
27914 1 20309
27915 1 20306
27916 1 27204
27917 1 27204
27918 15 20287 20291 20292 20293 20299 20314 20315 20316 20317 20320 28356 28357 28364 28573 28758
27919 1 28758
27920 3 20282 20284 20300
27921 16 20283 20285 20286 20304 20322 20323 20324 20325 20326 20328 20329 20330 20331 20333 28362 28758
27922 2 20304 28362
27923 2 20304 28362
27924 1 20338
27925 2 20303 28359
27926 3 20302 20338 28367
27927 1 20310
27928 1 20310
27929 3 23348 23497 26970
27930 8 20237 20245 20246 22199 22200 22202 22268 22270
27931 9 22957 23272 23274 23275 23337 23338 23341 23344 27949
27932 4 23277 23339 23340 23348
27933 3 23055 23275 23344
27934 2 22957 27948
27935 3 23504 23512 23552
27936 3 23445 23596 23815
27937 11 23422 23423 23461 23554 23555 23556 23557 23596 23651 23816 27950
27938 2 23601 23796
27939 5 20270 20272 20273 20277 20278
27940 1 23601
27941 3 23601 23796 27950
27942 6 23424 23428 23598 23600 23601 27950
27943 2 23427 23600
27944 17 20260 20274 20277 23423 23424 23520 23521 23559 23560 23561 23562 23566 23567 23598 23599 23600 23659
27945 2 23427 23600
27946 7 23425 23426 23428 23446 23601 23660 23785
27947 11 23429 23430 23431 23432 23433 23446 23603 23606 23786 23787 23788
27948 6 22957 23499 23551 23553 26974 27934
27949 2 22957 27931
27950 8 23423 23461 23558 23598 23601 27937 27941 27942
27951 4 25465 25785 25786 28135
27952 1 25241
27953 8 20434 20435 20437 27954 27955 27956 27957 27958
27954 3 20434 24446 27953
27955 4 20434 20435 24983 27953
27956 2 20437 27953
27957 1 27953
27958 2 20435 27953
27959 2 25105 25198
27960 1 27971
27961 3 25196 25197 27972
27962 1 27973
27963 1 27974
27964 1 27974
27965 1 27973
27966 1 27974
27967 1 27973
27968 4 25148 25211 27976 27977
27969 4 25149 27977 27978 27979
27970 1 27981
27971 2 25198 27960
27972 3 25196 25197 27961
27973 8 25128 25139 25140 25141 25142 27962 27965 27967
27974 7 25126 25138 25144 25209 27963 27964 27966
27975 1 25147
27976 12 25132 25142 25143 25145 25146 25147 25148 25163 25188 25210 25211 27968
27977 5 25135 25148 25149 27968 27969
27978 2 25149 27969
27979 2 25149 27969
27980 1 25150
27981 2 25150 27970
27982 2 28000 28008
27983 1 28004
27984 1 28004
27985 3 25467 28000 28011
27986 3 28001 28002 28010
27987 1 28001
27988 1 28004
27989 1 28001
27990 1 28002
27991 2 28003 28011
27992 1 28004
27993 1 25367
27994 2 25367 25806
27995 1 25806
27996 1 25806
27997 1 25807
27998 2 25449 25807
27999 2 25467 28008
28000 4 25467 27982 27985 28008
28001 8 20312 25462 27986 27987 27989 28007 28009 28010
28002 3 27986 27990 28010
28003 4 25467 27991 28011 28013
28004 8 25462 25466 25467 27983 27984 27988 27992 28012
28005 1 28006
28006 1 28005
28007 2 25462 28001
28008 4 25467 27982 27999 28000
28009 1 28001
28010 4 25462 27986 28001 28002
28011 4 25467 27985 27991 28003
28012 2 25462 28004
28013 2 25467 28003
28014 1 25218
28015 1 25218
28016 2 20694 25218
28017 3 20656 20694 25218
28018 1 20656
28019 4 20655 20656 20658 25218
28020 7 20659 20667 20733 25220 25653 26068 28169
28021 2 20667 20733
28022 8 20631 20654 20657 20695 20713 20714 28579 28661
28023 2 20733 26069
28024 2 20641 26069
28025 3 20670 20697 25655
28026 1 20641
28027 1 20642
28028 11 20629 20669 20735 20830 25247 25517 26070 26404 26430 28191 28192
28029 5 20631 20781 26113 28579 28580
28030 2 20669 26115
28031 1 25223
28032 3 25224 25673 28193
28033 5 20781 20836 21017 27042 28582
28034 7 20670 20736 20737 21014 26116 26405 27038
28035 5 20669 26114 26115 26435 27037
28036 3 20801 25225 28193
28037 3 20670 25223 25531
28038 1 20801
28039 7 20636 20660 20661 20715 20801 26074 26412
28040 2 26082 26412
28041 8 20670 26071 26072 26077 26406 26409 26977 27172
28042 2 26082 26978
28043 3 20747 25538 28195
28044 3 20747 28195 28196
28045 3 20634 26080 28171
28046 2 20747 28196
28047 4 20634 20701 26248 28172
28048 1 20634
28049 3 20837 20973 25253
28050 5 20751 25253 25254 25438 25668
28051 8 20637 20643 20716 20759 20838 25611 26228 28174
28052 4 20634 20837 28172 28173
28053 2 20637 20675
28054 9 20622 20635 20636 20750 25537 26130 26979 27174 28194
28055 7 20644 20675 20754 21026 26236 26982 28198
28056 2 20677 25458
28057 9 20676 20682 20683 21044 25454 26132 27063 28175 28176
28058 5 20677 20689 20835 27062 28178
28059 3 20771 20792 27064
28060 3 20843 27257 28179
28061 4 20688 20689 20843 28179
28062 1 28180
28063 1 27253
28064 3 20843 27257 28181
28065 8 20651 21036 26140 26141 26142 26427 27256 28180
28066 5 25748 28138 28140 28204 28291
28067 3 20623 25593 28201
28068 1 20623
28069 3 20623 28145 28203
28070 1 28143
28071 1 28145
28072 3 28140 28141 28204
28073 1 28143
28074 1 28141
28075 1 28145
28076 1 28143
28077 1 28145
28078 1 28143
28079 1 28143
28080 2 28142 28229
28081 1 28143
28082 1 28145
28083 1 25496
28084 2 25495 25572
28085 2 20960 25496
28086 1 20960
28087 4 20625 28141 28143 28206
28088 1 28145
28089 3 20923 28142 28146
28090 1 28145
28091 1 28146
28092 1 28145
28093 1 28156
28094 1 28156
28095 1 28156
28096 3 20961 25572 28147
28097 1 28156
28098 4 20827 20855 28147 28152
28099 1 28159
28100 2 20826 28156
28101 3 20827 20828 28154
28102 1 28159
28103 1 28156
28104 1 28158
28105 1 28159
28106 7 20859 20928 28151 28153 28155 28157 28161
28107 1 28158
28108 2 20928 20963
28109 1 28159
28110 1 28159
28111 3 20928 28160 28161
28112 8 20863 20929 20930 20934 20966 28162 28163 28164
28113 4 20870 20871 28165 28166
28114 3 20873 28167 28168
28115 4 20920 20936 28575 28578
28116 3 20802 28367 28368
28117 3 20662 28182 28368
28118 2 20665 20950
28119 6 20665 20944 20945 26274 26275 28183
28120 9 20806 20937 20944 20946 26220 26275 26276 26277 28183
28121 2 20938 26278
28122 4 20937 20946 26220 26264
28123 4 20946 26264 26277 28183
28124 2 20948 26278
28125 4 20948 25398 26221 26337
28126 2 25398 26337
28127 1 26337
28128 1 26337
28129 1 26337
28130 1 26337
28131 4 25399 26265 26266 28190
28132 2 26337 28189
28133 1 28190
28134 2 22484 22571
28135 1 27951
28136 4 26067 26354 26371 28217
28137 3 28200 28289 28324
28138 1 28066
28139 1 28200
28140 3 28066 28072 28204
28141 6 20625 28072 28074 28087 28204 28206
28142 9 20923 25501 25828 25993 26017 28080 28089 28205 28229
28143 15 20921 25567 25992 28070 28073 28076 28078 28079 28081 28087 28202 28204 28206 28292 28327
28144 2 20922 20960
28145 11 20623 28069 28071 28075 28077 28082 28088 28090 28092 28200 28203
28146 11 20626 20627 20850 20851 20853 20854 20923 20991 20992 28089 28091
28147 5 20855 20925 20961 28096 28098
28148 1 20925
28149 2 20925 20961
28150 1 20925
28151 4 20856 20928 20963 28106
28152 3 20827 20855 28098
28153 2 20928 28106
28154 4 20827 20828 20858 28101
28155 2 20928 28106
28156 13 20826 20922 20960 25496 25500 28093 28094 28095 28097 28100 28103 28207 28208
28157 3 20859 20928 28106
28158 3 28104 28107 28209
28159 9 20827 20829 20855 20858 28099 28102 28105 28109 28110
28160 2 20928 28111
28161 6 20857 20859 20928 20962 28106 28111
28162 4 20863 20929 20930 28112
28163 2 20863 28112
28164 3 20863 20930 28112
28165 4 20870 20871 20968 28113
28166 4 20871 20872 20968 28113
28167 1 28114
28168 4 20873 20935 20969 28114
28169 2 20733 28020
28170 8 20672 20743 20746 20747 25249 25251 25666 26079
28171 5 20673 25253 25667 26080 28045
28172 9 20634 20701 20749 20752 20837 20973 26248 28047 28052
28173 2 20634 28052
28174 2 20643 28051
28175 2 20682 28057
28176 3 20676 20682 28057
28177 1 20677
28178 3 20677 27062 28058
28179 4 20843 21033 28060 28061
28180 7 26090 26140 27253 27254 27256 28062 28065
28181 5 20843 26093 26123 27257 28064
28182 3 20662 28117 28368
28183 7 20945 26275 26277 26279 28119 28120 28123
28184 1 26279
28185 2 26279 27220
28186 4 20938 20939 26278 27215
28187 1 20948
28188 1 20948
28189 3 20948 26337 28132
28190 9 20918 20949 20953 25399 26211 26222 26266 28131 28133
28191 3 20830 26430 28028
28192 2 20830 28028
28193 6 25224 25225 25450 25673 28032 28036
28194 4 20622 20633 20750 28054
28195 3 20747 28043 28044
28196 3 20747 28044 28046
28197 1 20634
28198 4 20644 20675 21026 28055
28199 5 20652 20692 26185 26373 26428
28200 6 20623 25745 28137 28139 28145 28324
28201 2 20623 28067
28202 3 25567 25992 28143
28203 3 20623 28069 28145
28204 11 20624 20625 20921 25567 25706 25748 28066 28072 28140 28141 28143
28205 5 25501 25570 25828 26017 28142
28206 5 20625 20921 28087 28141 28143
28207 4 25468 25496 25500 28156
28208 4 20927 25500 25504 28156
28209 2 25504 28158
28210 2 25505 25759
28211 3 25759 25760 28215
28212 3 25120 25126 25763
28213 1 25763
28214 4 25121 25762 25764 28216
28215 6 25335 25759 25760 25762 25775 28211
28216 2 25762 28214
28217 4 25325 26354 26371 28136
28218 3 26067 26258 26440
28219 5 25816 25977 26038 28278 28283
28220 5 26021 26039 28277 28280 28309
28221 3 26022 28279 28281
28222 1 28283
28223 1 28284
28224 1 28286
28225 2 25820 25986
28226 2 25986 28288
28227 2 28292 28322
28228 1 28292
28229 10 25825 25993 28080 28142 28285 28287 28290 28317 28323 28326
28230 2 26699 28262
28231 2 28263 28264
28232 2 26699 28265
28233 2 26750 28265
28234 3 26638 26749 28264
28235 3 21144 26637 26639
28236 2 26638 26666
28237 2 26639 26666
28238 1 26737
28239 2 21463 26725
28240 4 21482 25832 25836 26737
28241 2 26702 26737
28242 1 26702
28243 1 26702
28244 1 26702
28245 1 26702
28246 2 21462 26702
28247 1 21462
28248 9 21355 21456 21461 26700 26701 26725 26726 28295 28299
28249 1 28269
28250 8 21462 21470 21471 26703 26705 26712 26713 28306
28251 9 21055 21056 21429 21434 21435 21470 28271 28296 28328
28252 1 28307
28253 1 28307
28254 27 21090 21271 21272 21273 21274 21303 21343 21344 21404 21431 21437 21438 21444 21445 21446 26578 26579 26611 28297 28307 28586 28595 28600 28603 28604 28606 28614
28255 4 20799 20904 20917 26172
28256 1 20917
28257 3 20799 26102 26174
28258 18 20917 21125 21181 26103 26173 26476 26502 26646 26719 26723 26785 26788 26789 26800 26801 26819 27339 27376
28259 5 26627 26629 26646 26648 26719
28260 7 26629 26630 26634 26648 26669 26681 27378
28261 1 28264
28262 4 26655 26687 26699 28230
28263 1 28231
28264 10 26577 26658 26659 26660 26679 26697 26749 28231 28234 28261
28265 6 26699 26750 28232 28233 28294 28298
28266 1 26705
28267 1 26704
28268 1 26705
28269 2 26704 28249
28270 4 21308 26706 26714 28276
28271 10 21359 21441 26705 26706 26707 26714 26716 28251 28273 28296
28272 4 21307 21308 21441 28274
28273 4 21359 21441 21442 28271
28274 5 21307 21308 21355 21441 28272
28275 2 21355 21453
28276 2 21308 28270
28277 3 26039 28220 28309
28278 3 25816 25977 28219
28279 1 28221
28280 2 28220 28309
28281 2 28221 28311
28282 1 28312
28283 3 28219 28222 28313
28284 5 25985 28223 28310 28314 28315
28285 4 25993 28229 28316 28317
28286 1 28224
28287 8 25993 28229 28317 28318 28319 28320 28321 28323
28288 3 25820 25986 28226
28289 2 28137 28324
28290 3 25989 28229 28323
28291 3 25748 25820 28066
28292 7 25992 28143 28227 28228 28322 28325 28327
28293 3 25878 26028 28303
28294 5 26699 26750 28265 28298 28308
28295 6 26699 26725 26839 28248 28299 28308
28296 7 21055 21435 21483 26640 26716 28251 28271
28297 16 21301 21302 21303 21323 21324 21325 21374 21375 21436 21477 21478 21479 21480 27375 28254 28307
28298 3 26699 28265 28294
28299 4 26726 26839 28248 28295
28300 4 25957 26025 26027 26032
28301 4 25833 25878 26033 26034
28302 2 25834 26035
28303 4 25878 26027 26028 28293
28304 4 25664 25956 26023 26026
28305 4 25391 25929 26029 26036
28306 6 21433 21470 21471 25832 25844 28250
28307 17 21067 21374 21431 25959 26578 26652 26672 26682 26711 27337 27353 27375 27377 28252 28253 28254 28297
28308 9 21467 26664 26698 26699 26725 26742 26750 28294 28295
28309 5 25816 25977 28220 28277 28280
28310 2 25985 28284
28311 1 28281
28312 3 25819 25985 28282
28313 1 28283
28314 3 25985 28284 28315
28315 3 25985 28284 28314
28316 2 25993 28285
28317 4 25993 28229 28285 28287
28318 2 25993 28287
28319 2 25993 28287
28320 2 25993 28287
28321 2 25993 28287
28322 3 25992 28227 28292
28323 6 25825 25989 25993 28229 28287 28290
28324 6 25745 25823 25990 28137 28200 28289
28325 1 28292
28326 3 25825 25993 28229
28327 3 25992 28143 28292
28328 13 21054 21056 21058 21429 21434 27411 27508 27509 27529 27530 27531 27556 28251
28329 1 27514
28330 1 27514
28331 1 27514
28332 1 27514
28333 1 27514
28334 1 27514
28335 11 27512 27513 27556 27689 27720 27728 27758 27759 27760 27798 27889
28336 1 27514
28337 2 27728 27902
28338 1 27514
28339 2 27514 27690
28340 26 21510 21515 21541 21550 21551 21553 21593 21595 21605 21607 21609 21610 21617 21645 21654 21655 21661 21662 21663 21685 21688 21692 21708 21821 27627 28350
28341 52 21513 21517 21519 21523 21524 21525 21527 21528 21530 21531 21558 21559 21560 21561 21562 21563 21581 21594 21596 21597 21598 21599 21600 21601 21602 21612 21613 21614 21616 21618 21619 21647 21649 21650 21651 21652 21653 21658 21726 21727 21746 21837 26053 27633 27869 27871 28347 28348 28349 28351 28353 28354
28342 4 21748 21785 21787 26053
28343 2 21632 21782
28344 65 21497 21498 21505 21506 21532 21533 21534 21535 21536 21537 21538 21539 21540 21566 21567 21568 21569 21570 21581 21619 21621 21622 21624 21625 21626 21627 21628 21629 21631 21632 21713 21730 21731 21732 21748 21749 21752 21754 21775 21782 21785 21786 21787 21788 26052 26053 27580 27581 27582 27584 27594 27600 27602 27644 27648 27670 27671 27673 27772 27773 27775 27792 27842 27857 27871
28345 2 21517 28353
28346 20 21511 21514 21516 21517 21552 21593 21594 21606 21610 21656 21657 21686 21689 21691 21708 21782 27633 28350 28351 28352
28347 2 27869 28341
28348 2 21597 28341
28349 1 28341
28350 14 21510 21511 21516 21551 21554 21555 21556 21593 21607 21610 21646 21764 28340 28346
28351 8 21517 21658 21686 21766 21782 28341 28346 28352
28352 4 21514 21782 28346 28351
28353 6 21513 21517 21594 21652 28341 28345
28354 4 21562 21600 21649 28341
28355 2 28365 28574
28356 1 27918
28357 3 20293 27918 28758
28358 2 20335 28758
28359 5 20303 20307 20336 27913 27925
28360 4 20307 27204 27911 27913
28361 5 20335 28365 28370 28574 28756
28362 8 20304 20331 20333 27921 27922 27923 28366 28758
28363 1 20304
28364 9 20315 20316 20317 20318 20319 20320 27918 28573 28758
28365 4 28355 28361 28370 28574
28366 5 20304 20335 27909 28362 28758
28367 7 20302 20337 20338 20800 20802 27926 28116
28368 9 20308 20662 20802 20919 27202 27203 28116 28117 28182
28369 6 20298 20313 27904 28571 28572 28752
28370 4 28361 28365 28574 28756
28371 20 21069 21177 21423 21486 25872 25873 25875 25876 25887 25888 26532 26534 26563 26564 26565 26567 26602 26679 26780 26781
28372 3 21177 26534 26660
28373 2 26522 26655
28374 5 145 5472 6406 28382 28501
28375 15 536 551 554 555 556 562 566 567 569 573 6394 6395 28485 28499 28500
28376 7 563 568 18128 28377 28378 28485 28499
28377 2 28376 28485
28378 5 563 18128 28376 28382 28383
28379 4 10432 18128 28382 28383
28380 4 574 14862 28381 28501
28381 14 557 574 8428 8464 10431 10432 14852 14857 14858 14860 14862 14863 28380 28382
28382 15 137 544 545 553 557 563 5472 6406 10431 10432 28374 28378 28379 28381 28383
28383 4 18128 28378 28379 28382
28384 13 586 1460 1470 1520 2251 4500 15010 15043 18073 18127 28396 28406 28499
28385 6 6484 19318 28459 28478 28504 28509
28386 7 991 6482 6688 6691 18915 28387 28508
28387 9 991 10840 11033 11035 15970 19055 28386 28388 28494
28388 16 1017 1018 6221 6222 6692 6693 6694 6699 15970 19055 28387 28492 28493 28494 28511 28513
28389 6 6486 18918 28479 28507 28510 28512
28390 2 28467 28482
28391 2 28484 28514
28392 13 15288 15302 15303 15304 15307 19578 19579 19626 19627 28482 28483 28484 28514
28393 26 1149 1150 1151 1186 1187 1188 1189 1190 1191 1202 2230 3967 4361 4654 4837 4989 6363 6364 6370 11837 15157 15218 28442 28480 28481 28498
28394 8 1523 1524 13412 13429 28395 28405 28408 28409
28395 6 1522 1523 13412 28394 28406 28407
28396 6 1516 13412 15001 15010 28384 28406
28397 2 7203 28400
28398 6 1424 1441 1450 1586 28400 28402
28399 3 28401 28402 28413
28400 13 1347 1348 1441 7185 7186 7201 7203 7238 28397 28398 28402 28410 28411
28401 11 1552 1557 1577 7285 7348 28399 28402 28403 28404 28413 28414
28402 13 1450 1552 1586 7190 7198 7220 28398 28399 28400 28401 28410 28411 28413
28403 2 28401 28404
28404 9 1554 7250 7251 7260 7285 28401 28403 28414 28424
28405 7 1515 1524 28394 28407 28408 28409 28415
28406 9 1460 1461 1516 1522 1848 13412 28384 28395 28396
28407 13 1461 1522 1523 1524 1847 1848 1912 1921 2890 3326 28395 28405 28415
28408 5 13429 13479 28394 28405 28415
28409 2 28394 28405
28410 4 7190 28400 28402 28411
28411 17 7190 7191 7198 7203 7204 7206 7211 7217 7246 7267 7287 7292 7298 7351 28400 28402 28410
28412 3 28418 28424 28425
28413 7 7198 7219 7220 7348 28399 28401 28402
28414 4 1554 1577 28401 28404
28415 11 1916 2890 2949 2956 13479 28405 28407 28408 28431 28437 28438
28416 10 3223 13671 13672 13724 13836 28429 28435 28456 28457 28466
28417 4 2501 28420 28421 28422
28418 5 1554 2453 28412 28424 28425
28419 5 2490 3248 28420 28440 28447
28420 14 2448 2455 2489 2490 2494 2501 2510 3245 3248 28417 28419 28421 28447 28488
28421 13 13513 13529 13552 13554 13558 13752 28417 28420 28422 28440 28445 28447 28449
28422 7 2501 5476 13558 15568 28417 28421 28423
28423 4 5476 15568 28422 28488
28424 7 1554 7251 28404 28412 28418 28425 28427
28425 9 1554 2453 2509 5474 5475 28412 28418 28424 28427
28426 6 7251 7260 7361 7374 28427 28489
28427 5 5474 7251 28424 28425 28426
28428 22 2516 3597 3629 3630 6703 10934 11005 11006 13840 13842 13843 13845 13846 13849 13895 13912 18919 18922 19320 19324 28458 28459
28429 6 2675 13836 28416 28433 28435 28456
28430 40 1801 2872 2873 2886 2887 2888 2889 3222 3223 3519 3530 3531 3532 3534 3537 3538 3559 3621 13464 13465 13726 13727 13728 13729 13827 13828 13832 13833 13834 13837 14403 14404 14405 28433 28435 28436 28455 28456 28457 28458
28431 15 13467 13479 13492 13731 13732 13733 13743 13773 13774 13782 14406 14417 28415 28437 28438
28432 4 4073 13735 28451 28468
28433 10 1801 2675 2888 2889 3221 3222 3537 28429 28430 28435
28434 3 3621 28436 28458
28435 11 1801 13464 13465 13672 13724 13727 28416 28429 28430 28433 28458
28436 6 3621 13725 28430 28434 28457 28458
28437 4 2956 28415 28431 28438
28438 11 2949 3319 3966 4849 13730 13731 13733 28415 28431 28437 28464
28439 3 3841 28446 28448
28440 6 2845 3248 28419 28421 28447 28449
28441 9 3021 3249 13767 13780 14848 14849 14855 14861 28443
28442 7 3967 11837 11940 11943 12483 28393 28443
28443 9 3021 3249 3255 3967 3983 13767 13780 28441 28442
28444 2 13798 28451
28445 3 13752 28421 28449
28446 5 3841 13768 28439 28448 28449
28447 4 28419 28420 28421 28440
28448 9 3841 13768 13824 13825 28439 28446 28452 28461 28473
28449 8 3841 13752 13768 13799 28421 28440 28445 28446
28450 9 13716 13735 13801 14394 14424 14476 28469 28472 28476
28451 32 3906 3970 3981 4073 4074 4091 4092 13655 13683 13685 13713 13714 13715 13735 13751 13757 13783 13784 13787 13788 13789 13798 14149 14150 14151 14276 14283 14365 28432 28444 28460 28462
28452 1 28448
28453 3 4656 28455 28496
28454 4 4656 15217 28496 28497
28455 16 3531 3532 3954 4656 13827 13829 13835 14403 15156 15217 15231 17045 28430 28453 28496 28497
28456 8 2675 2873 3223 13836 28416 28429 28430 28466
28457 6 3223 13671 13725 28416 28430 28436
28458 19 1799 2516 2885 2887 3110 3621 4280 4281 13465 13724 13725 13727 13728 13849 28428 28430 28434 28435 28436
28459 10 3630 6481 6484 6626 6704 6705 19318 19320 28385 28428
28460 7 13784 14149 14365 28451 28462 28463 28519
28461 8 13712 13768 13812 13824 14365 28448 28473 28519
28462 4 3981 28451 28460 28519
28463 2 28460 28519
28464 11 3319 3965 3966 4915 5079 5085 13731 14414 15323 28438 28467
28465 2 28470 28517
28466 3 13836 28416 28456
28467 4 5085 28390 28464 28482
28468 8 4073 4109 6955 13735 14469 14474 28432 28518
28469 10 3896 13801 14385 14451 14471 28450 28471 28472 28476 28515
28470 7 3907 14475 19668 28465 28472 28474 28517
28471 4 19667 28469 28475 28515
28472 22 3896 3904 3905 3907 4058 4059 6942 6944 6945 14394 14395 14396 14399 14424 14475 14476 19683 28450 28469 28470 28474 28476
28473 7 3841 4089 4115 4123 28448 28461 28519
28474 2 28470 28472
28475 7 6918 6920 6954 19667 28471 28515 28516
28476 4 14394 28450 28469 28472
28477 1 28479
28478 4 6484 28385 28502 28509
28479 6 1106 28389 28477 28506 28510 28512
28480 4 1190 6373 28393 28481
28481 9 4654 4655 6372 6373 15155 15157 28393 28480 28498
28482 12 5085 11827 14414 14415 15235 15305 15308 15323 28390 28392 28467 28483
28483 3 28392 28482 28514
28484 4 19578 28391 28392 28514
28485 9 563 566 567 568 569 28375 28376 28377 28499
28486 6 2502 2503 2504 2506 2507 28489
28487 1 26916
28488 10 2501 2510 5474 5476 13555 15568 26917 28420 28423 28700
28489 2 28426 28486
28490 1 28491
28491 4 1018 6687 6697 28490
28492 3 19055 28388 28511
28493 1 28388
28494 5 991 6691 6693 28387 28388
28495 5 17044 17046 17047 17183 28498
28496 6 4656 15156 15217 28453 28454 28455
28497 11 3531 4656 4838 6305 6307 6309 13829 15217 15231 28454 28455
28498 15 1151 4361 4654 4837 6308 11941 11942 12483 15157 15216 15218 17183 28393 28481 28495
28499 19 536 539 554 555 556 565 586 6394 6395 6396 18064 18127 18128 18150 28375 28376 28384 28485 28500
28500 2 28375 28499
28501 4 145 574 28374 28380
28502 2 28478 28509
28503 3 993 6627 28508
28504 3 19318 28385 28509
28505 2 1019 28507
28506 4 1106 3679 28479 28510
28507 3 1019 28389 28505
28508 4 6485 18915 28386 28503
28509 5 19318 28385 28478 28502 28504
28510 6 11126 11127 18918 28389 28479 28506
28511 2 28388 28492
28512 5 992 1106 6486 28389 28479
28513 1 28388
28514 4 28391 28392 28483 28484
28515 5 3896 6918 28469 28471 28475
28516 1 28475
28517 6 1193 3905 3907 4059 28465 28470
28518 3 14449 14469 28468
28519 12 3903 3981 4072 4074 4114 4115 14365 28460 28461 28462 28463 28473
28520 5 7580 25781 28557 28566 28570
28521 5 7224 7243 28522 28523 28526
28522 4 7224 7236 28521 28526
28523 18 7196 7200 7243 7264 21847 21848 21887 21888 21919 21937 21941 21960 21975 28521 28526 28530 28532 28534
28524 7 7327 23238 23353 28528 28531 28533 28549
28525 5 21935 21936 28527 28530 28548
28526 9 7236 7265 7328 21941 28521 28522 28523 28536 28547
28527 5 28525 28530 28535 28548 28552
28528 5 22773 23238 28524 28533 28545
28529 4 7254 28539 28545 28550
28530 11 7200 7209 7301 21919 28523 28525 28527 28532 28534 28535 28548
28531 4 23238 28524 28546 28549
28532 3 7200 28523 28530
28533 6 7235 7327 28524 28528 28545 28549
28534 2 28523 28530
28535 5 7301 28527 28530 28537 28552
28536 4 7328 28526 28538 28547
28537 23 7252 7271 7301 21937 22366 22367 23092 23096 23290 24065 24371 24376 24380 24815 24816 28535 28541 28542 28543 28548 28551 28552 28554
28538 3 7328 7397 28536
28539 5 7222 7253 7254 28529 28550
28540 9 7283 7326 7396 7434 22381 23083 28546 28549 28553
28541 5 24376 24896 24926 28537 28551
28542 6 7234 7242 7252 7389 28537 28554
28543 5 24377 24803 24816 28537 28551
28544 4 7208 7253 7286 28550
28545 8 7235 7254 22773 23354 23372 28528 28529 28533
28546 9 21959 23083 23238 23287 23360 28531 28540 28549 28553
28547 5 21941 22382 22801 28526 28536
28548 11 21919 21935 21936 21937 22366 22774 28525 28527 28530 28537 28552
28549 13 7223 7235 7270 7283 7324 7327 7342 28524 28531 28533 28540 28546 28553
28550 5 7253 23372 28529 28539 28544
28551 4 24896 28537 28541 28543
28552 5 22366 28527 28535 28537 28548
28553 3 28540 28546 28549
28554 27 7234 7360 7383 7388 7389 7391 7392 7393 7470 7474 7549 7552 7553 24065 24067 24128 24129 24130 24131 24132 24378 25724 28537 28542 28555 28557 28566
28555 12 7467 7469 7470 7472 7473 7474 7475 7512 7515 7516 7571 28554
28556 4 28559 28561 28563 28564
28557 7 21051 25724 25735 25781 28520 28554 28566
28558 15 7172 7488 7491 7492 7494 7495 7503 7511 7513 7530 7533 27329 28561 28565 28569
28559 1 28556
28560 5 7466 25736 25778 28564 28570
28561 12 7172 7173 7178 7183 7476 7573 7574 26493 27329 28556 28558 28564
28562 3 28565 28568 28569
28563 4 25366 25778 28556 28564
28564 7 7466 25725 25778 28556 28560 28561 28563
28565 6 25726 25727 27329 28558 28562 28569
28566 5 7470 7580 28520 28554 28557
28567 4 7496 7534 7539 28568
28568 11 7496 7497 7498 7499 7500 7501 7536 7537 28562 28567 28569
28569 4 28558 28562 28565 28568
28570 8 7468 7580 21051 21052 25736 25781 28520 28560
28571 6 8917 17942 20298 28369 28572 28757
28572 4 28369 28571 28752 28757
28573 7 20287 27904 27918 28364 28752 28754 28758
28574 23 15497 17945 19876 19877 19889 19890 19891 19910 19921 19922 19933 19934 19935 19937 28355 28361 28365 28370 28752 28753 28755 28756 28758
28575 6 20920 20936 27906 27907 28115 28578
28576 5 11620 20620 28579 28662 28681
28577 1 28579
28578 14 11250 14058 18615 19483 19893 19964 20032 20800 20920 20936 28115 28575 28663 28664
28579 30 11316 11317 11318 11319 11409 11410 11466 11599 11600 11601 11603 11620 20620 20628 20630 20631 20713 20714 20734 21005 21007 21009 21012 26113 28022 28029 28576 28577 28580 28584
28580 11 20668 20781 21009 21011 21012 21017 26113 28029 28579 28582 28584
28581 9 11434 11619 15992 27041 27171 28585 28701 28702 28751
28582 14 11621 20700 20740 20836 21017 21018 21020 27039 27040 28033 28580 28583 28584 28751
28583 2 28582 28751
28584 13 11318 11413 11429 11431 11434 11466 11467 11621 20668 28579 28580 28582 28751
28585 2 28581 28702
28586 11 21432 21438 25901 26003 26579 26611 28254 28605 28606 28617 28721
28587 7 12902 21447 28590 28591 28597 28604 28614
28588 7 12158 21270 21342 21350 21400 28615 28616
28589 5 21350 28592 28600 28603 28616
28590 5 12678 12902 28587 28595 28614
28591 3 28587 28597 28604
28592 4 21270 21350 28589 28616
28593 3 12676 28602 28613
28594 3 21299 28602 28615
28595 12 12393 12678 12902 21344 21351 21445 21446 28254 28590 28599 28603 28614
28596 5 21336 21337 28601 28613 28742
28597 7 12902 12928 21437 28587 28591 28604 28609
28598 5 17191 17519 17561 17563 28742
28599 3 12393 28595 28603
28600 8 21271 21272 21348 21349 21350 28254 28589 28603
28601 4 12675 28596 28613 28742
28602 8 12676 12677 17533 21299 28593 28594 28613 28615
28603 12 12010 12070 12393 21272 21444 21445 28254 28589 28595 28599 28600 28616
28604 9 21273 21274 21437 21447 28254 28587 28591 28597 28614
28605 3 28586 28617 28721
28606 12 12931 21432 21437 21438 28254 28586 28608 28609 28610 28611 28612 28617
28607 10 12895 12931 13168 16873 17023 17024 28608 28611 28617 28721
28608 4 28606 28607 28611 28617
28609 9 12907 12928 12931 12946 12947 21437 28597 28606 28612
28610 3 12931 28606 28612
28611 4 12931 28606 28607 28608
28612 4 12931 28606 28609 28610
28613 19 12677 12900 17191 17520 21208 21211 21298 21299 21322 21336 21337 21338 21395 21421 28593 28596 28601 28602 28742
28614 5 28254 28587 28590 28595 28604
28615 10 12158 17533 21269 21299 21339 21347 21400 28588 28594 28602
28616 14 12010 12069 12070 12158 12191 12373 12393 13193 17533 21270 28588 28589 28592 28603
28617 6 28586 28605 28606 28607 28608 28721
28618 5 21923 21924 21944 28619 28629
28619 7 13523 13545 21923 28618 28627 28629 28630
28620 2 13535 28625
28621 5 13535 13536 13657 28625 28658
28622 13 13472 13473 13525 13551 13640 22370 23088 23118 24133 28625 28628 28629 28632
28623 5 22370 24134 28625 28657 28658
28624 9 13607 13646 13664 13721 24574 28651 28655 28657 28658
28625 11 13535 13602 13640 22370 23118 28620 28621 28622 28623 28632 28658
28626 2 28631 28697
28627 4 21923 23241 28619 28630
28628 2 28622 28632
28629 20 13474 13475 13477 13511 13520 13522 13524 13525 13537 13543 13545 21924 21947 22384 22385 23088 23089 28618 28619 28622
28630 7 13523 13531 13539 23241 28619 28627 28698
28631 16 21924 21947 21967 21986 21989 21990 22781 23112 23114 23197 23306 23307 26942 28626 28696 28697
28632 4 23118 28622 28625 28628
28633 1 28663
28634 4 13574 13575 28663 28664
28635 5 7693 8728 20084 28664 28665
28636 14 14295 24023 24028 24063 25276 25277 25278 25279 25476 28650 28654 28655 28668 28680
28637 5 13576 13580 13582 13588 28642
28638 3 13580 13588 28643
28639 10 13585 13587 13590 13591 23884 28641 28642 28644 28645 28672
28640 3 13585 28644 28669
28641 3 13585 28639 28644
28642 10 13576 13590 23916 23917 25323 25340 28637 28639 28645 28646
28643 4 13580 23932 28638 28673
28644 6 13585 28639 28640 28641 28669 28672
28645 5 23884 25303 25340 28639 28642
28646 1 28642
28647 1 28652
28648 1 28653
28649 2 25780 28655
28650 7 24073 28636 28653 28654 28655 28679 28680
28651 3 24574 28624 28655
28652 4 24070 24072 28647 28655
28653 4 24073 28648 28650 28655
28654 4 28636 28650 28679 28680
28655 46 13608 13609 13614 13615 13616 13617 13633 13645 13646 13648 13691 13709 13722 13723 13821 13823 14271 14295 14298 14299 14445 14493 14494 23896 23898 24014 24070 24072 24079 24080 24081 24124 24125 24126 24127 24574 24937 25780 28624 28636 28649 28650 28651 28652 28653 28658
28656 2 28657 28658
28657 10 22388 22390 23208 24134 24135 24574 28623 28624 28656 28658
28658 19 13536 13610 13628 13632 13645 13648 13664 13666 13764 13765 13771 13808 28621 28623 28624 28625 28655 28656 28657
28659 1 28667
28660 4 28666 28667 28674 28675
28661 12 13583 13584 13675 14275 14301 20620 20654 20695 28022 28668 28678 28681
28662 3 20620 28576 28681
28663 9 13574 14058 20800 20805 23859 25338 28578 28633 28634
28664 9 7693 13574 14058 18615 20084 25338 28578 28634 28635
28665 13 8728 11321 13577 13578 13585 14059 14264 25322 28635 28669 28671 28676 28677
28666 3 25424 28660 28674
28667 32 11321 13576 13578 13579 13580 14060 14061 14062 14064 14065 14130 14170 14171 14179 14181 14184 14186 14251 14264 14267 14943 14944 14946 19487 25341 25423 28659 28660 28673 28674 28675 28689
28668 15 13583 13584 14275 14295 24023 24028 25476 25477 25485 25487 25794 25798 28636 28661 28678
28669 8 13585 25301 25421 28640 28644 28665 28671 28672
28670 2 25428 28674
28671 4 25301 28665 28669 28677
28672 17 23884 25293 25294 25295 25296 25301 25302 25303 25319 25399 25417 25420 25506 28639 28644 28669 28677
28673 7 13580 20807 23932 25420 25422 28643 28667
28674 42 14101 14915 14916 14946 16357 16358 16359 16360 16362 20732 20811 20815 25297 25305 25306 25307 25308 25309 25310 25424 25425 25426 25428 26059 26061 26062 26104 26105 26106 26109 26110 27396 28660 28666 28667 28670 28675 28689 28690 28691 28704 28705
28675 3 28660 28667 28674
28676 3 25322 25339 28665
28677 4 25301 28665 28671 28672
28678 2 28661 28668
28679 2 28650 28654
28680 5 24073 25276 28636 28650 28654
28681 7 14085 14300 14301 20620 28576 28661 28662
28682 6 25915 25960 28683 28684 28693 28750
28683 17 15177 24355 25271 25370 25371 25405 25893 25960 26610 28682 28685 28693 28694 28695 28746 28747 28750
28684 6 25842 25915 25960 28682 28692 28750
28685 2 28683 28695
28686 1 28746
28687 3 27469 27478 28688
28688 5 25905 26005 27469 27484 28687
28689 13 11469 11471 14101 14130 14196 14943 14944 14945 14946 16357 28667 28674 28706
28690 2 16360 28674
28691 1 28674
28692 8 25842 26535 27333 27442 28684 28714 28738 28750
28693 4 28682 28683 28694 28750
28694 3 28683 28693 28750
28695 7 14498 15177 15178 15179 28683 28685 28746
28696 8 15564 15566 15567 22781 26942 28631 28697 28698
28697 13 21986 22787 23110 23114 23195 26918 26919 26923 26931 28626 28631 28696 28700
28698 9 13537 13539 13545 15447 15566 22781 23241 28630 28696
28699 2 26918 28700
28700 5 26917 26918 28488 28697 28699
28701 15 11416 20699 20700 20740 20971 27040 27041 27043 27045 27169 27170 27171 28581 28702 28751
28702 4 11416 28581 28585 28701
28703 1 28706
28704 6 16360 16362 20728 28674 28705 28706
28705 7 26062 26109 27166 27167 27398 28674 28704
28706 26 11435 11436 11469 11470 11473 11474 11475 11476 11480 14196 14948 14949 16058 16059 16063 16065 16066 16467 16470 16954 16957 20728 27105 28689 28703 28704
28707 9 17295 21059 21061 21062 26612 26613 26616 27437 28735
28708 4 26584 28710 28736 28737
28709 3 17719 28737 28739
28710 13 17291 17294 17296 17463 17464 17513 17515 17716 17717 17719 28708 28736 28737
28711 11 16848 17720 26585 27439 27441 27443 27445 28733 28737 28740 28748
28712 10 26587 27440 27441 27444 27445 27446 28733 28734 28738 28748
28713 1 28738
28714 8 17722 17723 17767 17768 28692 28738 28749 28750
28715 5 17079 27372 28728 28729 28730
28716 3 17053 28719 28723
28717 6 17054 17082 17087 28719 28723 28730
28718 3 16967 28727 28729
28719 12 16849 17087 17088 17211 17229 17230 27434 27435 28716 28717 28723 28730
28720 2 27420 28726
28721 5 17023 28586 28605 28607 28617
28722 5 17225 27388 27399 28725 28726
28723 3 28716 28717 28719
28724 5 16064 17213 17214 17215 17218
28725 7 17219 17221 17225 27388 28722 28731 28732
28726 9 16909 17225 17226 17227 27388 27420 27424 28720 28722
28727 2 16967 28718
28728 1 28715
28729 12 16967 21224 21225 26730 26731 26732 27368 27369 27370 27372 28715 28718
28730 9 16855 16858 17078 17087 27372 27434 28715 28717 28719
28731 1 28725
28732 1 28725
28733 7 16848 17720 17764 28711 28712 28734 28748
28734 7 17721 17761 17764 28712 28733 28738 28749
28735 7 16821 17043 17258 17290 17295 27437 28707
28736 8 26583 26584 26618 26619 27438 28708 28710 28737
28737 11 17719 17720 21064 26585 28708 28709 28710 28711 28736 28739 28740
28738 11 26535 26587 27333 27334 27442 28692 28712 28713 28714 28734 28749
28739 5 17464 17719 17720 28709 28737
28740 3 17720 28711 28737
28741 5 27361 27460 27461 28743 28745
28742 15 17191 17558 17563 21206 21211 21337 27361 27362 27451 28596 28598 28601 28613 28743 28744
28743 6 17554 27361 28741 28742 28744 28745
28744 2 28742 28743
28745 10 17190 17194 17195 17519 17531 27361 27409 27414 28741 28743
28746 8 14498 14499 26610 27484 28683 28686 28695 28747
28747 2 28683 28746
28748 4 27441 28711 28712 28733
28749 9 17761 17764 17765 17766 17767 17805 28714 28734 28738
28750 8 17723 28682 28683 28684 28692 28693 28694 28714
28751 10 11434 11621 20738 27040 27041 28581 28582 28583 28584 28701
28752 18 9997 10000 10007 10429 10430 17940 17942 17943 17945 20313 27904 28369 28572 28573 28574 28754 28757 28758
28753 5 20335 28574 28755 28756 28758
28754 3 28573 28752 28758
28755 3 28574 28753 28756
28756 6 20335 28361 28370 28574 28753 28755
28757 4 17942 28571 28572 28752
28758 31 20285 20293 20294 20320 20321 20322 20323 20324 20325 20326 20327 20328 20329 20330 20331 20334 20335 27905 27918 27919 27921 28357 28358 28362 28364 28366 28573 28574 28752 28753 28754
